   6    6    1    1
  1.1358579e+02   3.8933967e-10   3.8933967e-10   7.4931888e-10   5.0000000e-16
            1.000000e-04
  CAR
 DOS and projected DOS file by LOBSTER. Energy is shifted such that the Fermi level lies at 0 eV. 
      9.59029974     -15.45980046   501       4.58027970       1.00000000
-20.04008   0.00000  19.99995
-19.98998   0.00000  19.99995
-19.93988   0.00000  19.99995
-19.88978   0.00000  19.99995
-19.83968   0.00000  19.99995
-19.78958   0.00000  19.99995
-19.73948   0.00000  19.99995
-19.68938   0.00000  19.99995
-19.63928   0.00000  19.99995
-19.58918   0.00000  19.99995
-19.53908   0.00000  19.99995
-19.48898   0.00000  19.99995
-19.43888   0.00000  19.99995
-19.38878   0.00000  19.99995
-19.33868   0.00000  19.99995
-19.28858   0.00000  19.99995
-19.23848   0.00000  19.99995
-19.18838   0.00000  19.99995
-19.13828   0.00000  19.99995
-19.08818   0.00000  19.99995
-19.03808   0.00000  19.99995
-18.98798   0.00000  19.99995
-18.93788   0.00000  19.99995
-18.88778   0.00000  19.99995
-18.83768   0.00000  19.99995
-18.78758   0.00000  19.99995
-18.73747   0.00000  19.99995
-18.68737   0.00000  19.99995
-18.63727   0.00000  19.99995
-18.58717   0.00000  19.99995
-18.53707   0.00000  19.99995
-18.48697   0.00000  19.99995
-18.43687   0.04023  20.00197
-18.38677   0.24204  20.01409
-18.33667   0.46087  20.03718
-18.28657   0.67970  20.07123
-18.23647   0.89852  20.11625
-18.18637   1.12286  20.17251
-18.13627   1.21670  20.23346
-18.08617   1.15491  20.29132
-18.03607   1.09312  20.34609
-17.98597   1.03132  20.39776
-17.93587   0.97127  20.44642
-17.88577   0.98225  20.49563
-17.83567   1.03053  20.54726
-17.78557   1.07880  20.60131
-17.73547   1.12708  20.65778
-17.68537   1.17536  20.71666
-17.63527   1.22363  20.77797
-17.58517   1.27191  20.84169
-17.53507   1.32018  20.90783
-17.48497   1.57409  20.98669
-17.43487   3.08267  21.14114
-17.38477   2.84702  21.28377
-17.33467   2.61137  21.41460
-17.28457   1.85100  21.50734
-17.23447   1.43886  21.57942
-17.18437   1.34578  21.64685
-17.13427   1.25270  21.70961
-17.08417   1.15962  21.76771
-17.03407   1.06653  21.82114
-16.98397   0.97345  21.86991
-16.93387   0.88037  21.91402
-16.88377   1.71515  21.99995
-16.83367   0.00000  21.99995
-16.78357   0.00000  21.99995
-16.73347   0.00000  21.99995
-16.68337   0.00000  21.99995
-16.63327  10.57429  22.52972
-16.58317   7.98371  22.92970
-16.53307   2.22287  23.04107
-16.48297   2.08888  23.14572
-16.43287   1.95489  23.24366
-16.38277   1.82090  23.33489
-16.33267   1.68691  23.41941
-16.28257   1.55292  23.49721
-16.23246   1.41892  23.56830
-16.18236   1.33649  23.63525
-16.13226   1.75941  23.72340
-16.08216   2.22250  23.83475
-16.03206   1.61762  23.91579
-15.98196   1.07717  23.96976
-15.93186   0.53672  23.99665
-15.88176   0.06570  23.99994
-15.83166   0.00000  23.99994
-15.78156   0.00000  23.99994
-15.73146   0.00000  23.99994
-15.68136   0.00000  23.99994
-15.63126   0.00000  23.99994
-15.58116   0.00000  23.99994
-15.53106   0.00000  23.99994
-15.48096   0.00000  23.99994
-15.43086   0.00000  23.99994
-15.38076   0.00000  23.99994
-15.33066   0.00000  23.99994
-15.28056   0.00000  23.99994
-15.23046   0.00000  23.99994
-15.18036   0.00000  23.99994
-15.13026   0.00000  23.99994
-15.08016   0.00000  23.99994
-15.03006   0.00000  23.99994
-14.97996   0.00000  23.99994
-14.92986   0.00000  23.99994
-14.87976   0.00000  23.99994
-14.82966   0.00000  23.99994
-14.77956   0.00000  23.99994
-14.72946   0.00000  23.99994
-14.67936   0.00000  23.99994
-14.62926   0.00000  23.99994
-14.57916   0.00000  23.99994
-14.52906   0.00000  23.99994
-14.47896   0.00000  23.99994
-14.42886   0.00000  23.99994
-14.37876   0.00000  23.99994
-14.32866   0.00000  23.99994
-14.27856   0.00000  23.99994
-14.22846   0.00000  23.99994
-14.17836   0.00000  23.99994
-14.12826   0.00000  23.99994
-14.07816   0.00000  23.99994
-14.02806   0.00000  23.99994
-13.97796   0.00000  23.99994
-13.92786   0.00000  23.99994
-13.87776   0.00000  23.99994
-13.82766   0.08287  24.00409
-13.77756   0.38448  24.02335
-13.72745   0.87255  24.06707
-13.67735   1.54070  24.14426
-13.62725   2.10000  24.24947
-13.57715   2.42285  24.37085
-13.52705   2.51907  24.49706
-13.47695   2.67044  24.63085
-13.42685   3.05181  24.78375
-13.37675   4.42770  25.00558
-13.32665   7.89124  25.40093
-13.27655   8.42908  25.82323
-13.22645  10.99510  26.37408
-13.17635  18.18441  27.28513
-13.12625  11.49576  27.86107
-13.07615   2.77173  27.99993
-13.02605   0.00000  27.99993
-12.97595   0.00000  27.99993
-12.92585   0.00000  27.99993
-12.87575   0.00000  27.99993
-12.82565   0.00000  27.99993
-12.77555   0.00000  27.99993
-12.72545   0.00000  27.99993
-12.67535   0.00000  27.99993
-12.62525   0.00000  27.99993
-12.57515   0.00000  27.99993
-12.52505   0.00000  27.99993
-12.47495   0.00000  27.99993
-12.42485   0.00000  27.99993
-12.37475   0.00000  27.99993
-12.32465   0.00000  27.99993
-12.27455   0.00000  27.99993
-12.22445   0.00000  27.99993
-12.17435   0.00000  27.99993
-12.12425   0.00000  27.99993
-12.07415   0.00000  27.99993
-12.02405   0.00000  27.99993
-11.97395   0.00000  27.99993
-11.92385   0.00000  27.99993
-11.87375   0.00000  27.99993
-11.82365   0.00000  27.99993
-11.77355   0.00000  27.99993
-11.72345   0.00000  27.99993
-11.67335   0.00000  27.99993
-11.62325   0.00000  27.99993
-11.57315   0.00000  27.99993
-11.52305   0.00000  27.99993
-11.47295   0.00000  27.99993
-11.42285   0.00000  27.99993
-11.37275   0.00000  27.99993
-11.32265   0.00000  27.99993
-11.27255   0.00000  27.99993
-11.22244   0.00000  27.99993
-11.17234   0.00000  27.99993
-11.12224   0.00000  27.99993
-11.07214   0.00000  27.99993
-11.02204   0.00000  27.99993
-10.97194   0.00000  27.99993
-10.92184   0.00000  27.99993
-10.87174   0.00000  27.99993
-10.82164   0.00000  27.99993
-10.77154   0.00000  27.99993
-10.72144   0.00000  27.99993
-10.67134   0.00000  27.99993
-10.62124   0.00000  27.99993
-10.57114   0.00000  27.99993
-10.52104   0.00000  27.99993
-10.47094   0.00000  27.99993
-10.42084   0.00000  27.99993
-10.37074   0.00000  27.99993
-10.32064   0.00000  27.99993
-10.27054   0.00000  27.99993
-10.22044   0.00000  27.99993
-10.17034   0.00000  27.99993
-10.12024   0.00000  27.99993
-10.07014   0.00000  27.99993
-10.02004   0.00000  27.99993
 -9.96994   0.00000  27.99993
 -9.91984   0.00000  27.99993
 -9.86974   0.00000  27.99993
 -9.81964   0.00000  27.99993
 -9.76954   3.08965  28.15472
 -9.71944   2.26154  28.26803
 -9.66934   2.80930  28.40877
 -9.61924   3.74506  28.59640
 -9.56914   6.24805  28.90943
 -9.51904   6.31347  29.22574
 -9.46894   8.78672  29.66595
 -9.41884   5.77558  29.95531
 -9.36874   2.81615  30.09640
 -9.31864   1.54418  30.17376
 -9.26854   1.05528  30.22663
 -9.21844   0.79106  30.26626
 -9.16834   0.78513  30.30560
 -9.11824   0.82494  30.34693
 -9.06814   0.86476  30.39025
 -9.01804   0.90456  30.43557
 -8.96794   0.94437  30.48289
 -8.91784   1.03488  30.53473
 -8.86774   1.56409  30.61309
 -8.81764   1.83276  30.70492
 -8.76754   1.94067  30.80214
 -8.71743   2.04853  30.90478
 -8.66733   1.93210  31.00158
 -8.61723   1.11733  31.05755
 -8.56713   0.86245  31.10076
 -8.51703   0.84170  31.14293
 -8.46693   0.82096  31.18406
 -8.41683   0.80023  31.22415
 -8.36673   0.77949  31.26321
 -8.31663   0.75877  31.30122
 -8.26653   0.73804  31.33820
 -8.21643   0.71732  31.37414
 -8.16633   0.69660  31.40904
 -8.11623   0.67589  31.44290
 -8.06613   0.65518  31.47572
 -8.01603   0.63448  31.50751
 -7.96593   0.61471  31.53831
 -7.91583   0.60474  31.56860
 -7.86573   0.60588  31.59896
 -7.81563   0.61738  31.62989
 -7.76553   0.63046  31.66148
 -7.71543   0.64349  31.69372
 -7.66533   0.65648  31.72660
 -7.61523   0.66942  31.76014
 -7.56513   0.67121  31.79377
 -7.51503   0.63434  31.82555
 -7.46493   0.59085  31.85515
 -7.41483   0.52308  31.88136
 -7.36473   0.46570  31.90469
 -7.31463   0.41390  31.92543
 -7.26453   0.36212  31.94357
 -7.21443   0.31034  31.95912
 -7.16433   0.25858  31.97207
 -7.11423   0.20683  31.98244
 -7.06413   0.15510  31.99021
 -7.01403   0.10338  31.99539
 -6.96393   0.05783  31.99828
 -6.91383   0.02644  31.99961
 -6.86373   0.00614  31.99992
 -6.81363   0.00009  31.99992
 -6.76353   0.00000  31.99992
 -6.71343   0.00000  31.99992
 -6.66333   0.00000  31.99992
 -6.61323   0.00000  31.99992
 -6.56313   0.00000  31.99992
 -6.51303   0.00000  31.99992
 -6.46293   0.00000  31.99992
 -6.41283   0.00000  31.99992
 -6.36273   0.00000  31.99992
 -6.31263   0.00000  31.99992
 -6.26253   0.00000  31.99992
 -6.21242   0.00000  31.99992
 -6.16232   0.00000  31.99992
 -6.11222   0.00000  31.99992
 -6.06212   0.00000  31.99992
 -6.01202   0.00000  31.99992
 -5.96192   0.00000  31.99992
 -5.91182   0.00000  31.99992
 -5.86172   0.00000  31.99992
 -5.81162   0.00000  31.99992
 -5.76152   0.00000  31.99992
 -5.71142   0.00000  31.99992
 -5.66132   0.00000  31.99992
 -5.61122   0.00000  31.99992
 -5.56112   0.00000  31.99992
 -5.51102   0.00000  31.99992
 -5.46092   0.00000  31.99992
 -5.41082   0.00000  31.99992
 -5.36072   0.00000  31.99992
 -5.31062   0.00000  31.99992
 -5.26052   0.00000  31.99992
 -5.21042   0.00000  31.99992
 -5.16032   0.00000  31.99992
 -5.11022   0.00000  31.99992
 -5.06012   0.00000  31.99992
 -5.01002   0.00000  31.99992
 -4.95992   0.00000  31.99992
 -4.90982   0.00000  31.99992
 -4.85972   0.00000  31.99992
 -4.80962   0.00000  31.99992
 -4.75952   0.05082  32.00247
 -4.70942   7.62848  32.38465
 -4.65932   6.77794  32.72423
 -4.60922   4.77292  32.96335
 -4.55912   3.33899  33.13064
 -4.50902   3.39929  33.30094
 -4.45892   4.10436  33.50657
 -4.40882   3.03010  33.65838
 -4.35872   2.93484  33.80542
 -4.30862   3.10785  33.96112
 -4.25852   3.77376  34.15019
 -4.20842   4.58407  34.37985
 -4.15832   5.05698  34.63321
 -4.10822   3.90229  34.82871
 -4.05812   3.26899  34.99249
 -4.00802   2.78767  35.13215
 -3.95792   2.61923  35.26338
 -3.90782   2.47657  35.38745
 -3.85772   2.33391  35.50438
 -3.80762   2.19124  35.61416
 -3.75752   2.04855  35.71680
 -3.70741   1.90585  35.81228
 -3.65731   2.06583  35.91578
 -3.60721   1.70903  36.00140
 -3.55711   1.13150  36.05809
 -3.50701   0.92551  36.10446
 -3.45691   1.22280  36.16572
 -3.40681   1.62219  36.24699
 -3.35671   2.47392  36.37094
 -3.30661   3.06195  36.52434
 -3.25651   3.74613  36.71202
 -3.20641   4.34403  36.92966
 -3.15631   4.72249  37.16626
 -3.10621   3.71480  37.35237
 -3.05611   2.47678  37.47646
 -3.00601   5.43063  37.74853
 -2.95591   7.45919  38.12224
 -2.90581   6.27505  38.43662
 -2.85571   4.45421  38.65978
 -2.80561   3.69467  38.84488
 -2.75551   3.37640  39.01404
 -2.70541   3.02927  39.16581
 -2.65531   2.76664  39.30441
 -2.60521   2.58661  39.43400
 -2.55511   2.85466  39.57702
 -2.50501   4.60483  39.80773
 -2.45491   4.41905  40.02912
 -2.40481   5.23305  40.29130
 -2.35471   7.74440  40.67929
 -2.30461   7.91132  41.07565
 -2.25451   5.45497  41.34895
 -2.20441   4.54556  41.57668
 -2.15431   4.16771  41.78548
 -2.10421   3.92562  41.98216
 -2.05411   3.79390  42.17223
 -2.00401   4.73890  42.40965
 -1.95391   3.99687  42.60990
 -1.90381   3.67066  42.79380
 -1.85371   4.04617  42.99651
 -1.80361   5.50819  43.27247
 -1.75351   6.13792  43.57998
 -1.70341   5.03337  43.83216
 -1.65331   3.29757  43.99737
 -1.60321   2.74238  44.13476
 -1.55311   2.83089  44.27659
 -1.50301   3.46485  44.45018
 -1.45291   6.39792  44.77071
 -1.40281   9.33013  45.23816
 -1.35271   8.85598  45.68184
 -1.30261   8.72068  46.11875
 -1.25251   9.05470  46.57239
 -1.20240   9.71124  47.05893
 -1.15230   8.64579  47.49208
 -1.10220   6.84863  47.83520
 -1.05210   6.02269  48.13694
 -1.00200  16.74043  48.97564
 -0.95190  19.05901  49.93050
 -0.90180  13.80545  50.62215
 -0.85170  11.20625  51.18359
 -0.80160   7.77974  51.57336
 -0.75150   9.09000  52.02877
 -0.70140   7.44541  52.40178
 -0.65130   6.39467  52.72216
 -0.60120   6.19830  53.03269
 -0.55110  10.37484  53.55247
 -0.50100  10.04724  54.05584
 -0.45090   8.71029  54.49223
 -0.40080   8.91872  54.93906
 -0.35070   7.58386  55.31901
 -0.30060   4.96853  55.56794
 -0.25050   3.15509  55.72601
 -0.20040   2.29823  55.84115
 -0.15030   1.62983  55.92280
 -0.10020   1.06598  55.97621
 -0.05010   0.47204  55.99986
 -0.00000   0.00000  55.99986
  0.05010   0.00000  55.99986
  0.10020   0.00000  55.99986
  0.15030   0.00000  55.99986
  0.20040   0.00000  55.99986
  0.25050   0.00000  55.99986
  0.30060   0.00000  55.99986
  0.35070   0.00000  55.99986
  0.40080   0.00000  55.99986
  0.45090   0.00000  55.99986
  0.50100   0.00000  55.99986
  0.55110   0.00000  55.99986
  0.60120   0.00000  55.99986
  0.65130   0.00000  55.99986
  0.70140   0.00000  55.99986
  0.75150   0.00000  55.99986
  0.80160   0.00000  55.99986
  0.85170   0.00000  55.99986
  0.90180   0.00000  55.99986
  0.95190   0.00000  55.99986
  1.00200   0.00000  55.99986
  1.05210   0.00000  55.99986
  1.10220   0.00000  55.99986
  1.15230   0.00000  55.99986
  1.20240   0.00000  55.99986
  1.25251   0.00000  55.99986
  1.30261   0.00000  55.99986
  1.35271   0.00000  55.99986
  1.40281   0.00000  55.99986
  1.45291   0.00000  55.99986
  1.50301   0.00000  55.99986
  1.55311   0.00000  55.99986
  1.60321   0.00000  55.99986
  1.65331   0.00000  55.99986
  1.70341   0.00000  55.99986
  1.75351   0.00000  55.99986
  1.80361   0.00000  55.99986
  1.85371   0.00000  55.99986
  1.90381   0.00000  55.99986
  1.95391   0.00000  55.99986
  2.00401   0.00000  55.99986
  2.05411   0.00000  55.99986
  2.10421   0.00000  55.99986
  2.15431   0.00000  55.99986
  2.20441   0.00000  55.99986
  2.25451   0.00000  55.99986
  2.30461   0.00000  55.99986
  2.35471   0.00000  55.99986
  2.40481   0.00000  55.99986
  2.45491   0.00000  55.99986
  2.50501   0.00000  55.99986
  2.55511   0.00000  55.99986
  2.60521   0.00064  55.99989
  2.65531   0.00526  56.00016
  2.70541   0.01208  56.00076
  2.75551   0.02071  56.00180
  2.80561   0.03114  56.00336
  2.85571   0.04356  56.00554
  2.90581   0.05880  56.00849
  2.95591   0.07710  56.01235
  3.00601   0.09802  56.01726
  3.05611   0.12217  56.02338
  3.10621   0.14942  56.03087
  3.15631   0.17802  56.03979
  3.20641   0.20796  56.05021
  3.25651   0.23925  56.06219
  3.30661   0.27188  56.07581
  3.35671   0.30586  56.09114
  3.40681   0.34119  56.10823
  3.45691   0.37851  56.12719
  3.50701   0.41926  56.14820
  3.55711   0.46363  56.17143
  3.60721   0.51162  56.19706
  3.65731   0.70301  56.23228
  3.70741   1.30654  56.29774
  3.75752   2.59838  56.42792
  3.80762   2.98022  56.57723
  3.85772   3.28943  56.74203
  3.90782   3.97960  56.94141
  3.95792   4.19773  57.15172
  4.00802   4.28706  57.36650
  4.05812   4.25657  57.57975
  4.10822   3.75813  57.76804
  4.15832   3.07267  57.92198
  4.20842   2.57691  58.05108
  4.25852   2.23576  58.16309
  4.30862   2.15203  58.27091
  4.35872   2.05121  58.37368
  4.40882   1.92555  58.47015
  4.45892   1.57151  58.54888
  4.50902   1.89065  58.64360
  4.55912   2.74707  58.78123
  4.60922   3.76601  58.96991
  4.65932   6.90258  59.31573
  4.70942   4.45181  59.53876
  4.75952   3.10737  59.69444
  4.80962   3.21151  59.85534
  4.85972   3.54882  60.03314
  4.90982   3.19029  60.19297
  4.95992   2.90725  60.33863
  5.01002   2.80129  60.47897
      5.01002004     -20.04008016   501       4.58027970       1.00000000; Z= 83; 6s 6p_y 6p_z 6p_x 5d_xy 5d_yz 5d_z^2 5d_xz 5d_x^2-y^2 
-20.04008   0.00000   0.00000   0.00000   0.00000   0.00000   0.00000   0.00000   0.00000   0.00000
-19.98998   0.00000   0.00000   0.00000   0.00000   0.00000   0.00000   0.00000   0.00000   0.00000
-19.93988   0.00000   0.00000   0.00000   0.00000   0.00000   0.00000   0.00000   0.00000   0.00000
-19.88978   0.00000   0.00000   0.00000   0.00000   0.00000   0.00000   0.00000   0.00000   0.00000
-19.83968   0.00000   0.00000   0.00000   0.00000   0.00000   0.00000   0.00000   0.00000   0.00000
-19.78958   0.00000   0.00000   0.00000   0.00000   0.00000   0.00000   0.00000   0.00000   0.00000
-19.73948   0.00000   0.00000   0.00000   0.00000   0.00000   0.00000   0.00000   0.00000   0.00000
-19.68938   0.00000   0.00000   0.00000   0.00000   0.00000   0.00000   0.00000   0.00000   0.00000
-19.63928   0.00000   0.00000   0.00000   0.00000   0.00000   0.00000   0.00000   0.00000   0.00000
-19.58918   0.00000   0.00000   0.00000   0.00000   0.00000   0.00000   0.00000   0.00000   0.00000
-19.53908   0.00000   0.00000   0.00000   0.00000   0.00000   0.00000   0.00000   0.00000   0.00000
-19.48898   0.00000   0.00000   0.00000   0.00000   0.00000   0.00000   0.00000   0.00000   0.00000
-19.43888   0.00000   0.00000   0.00000   0.00000   0.00000   0.00000   0.00000   0.00000   0.00000
-19.38878   0.00000   0.00000   0.00000   0.00000   0.00000   0.00000   0.00000   0.00000   0.00000
-19.33868   0.00000   0.00000   0.00000   0.00000   0.00000   0.00000   0.00000   0.00000   0.00000
-19.28858   0.00000   0.00000   0.00000   0.00000   0.00000   0.00000   0.00000   0.00000   0.00000
-19.23848   0.00000   0.00000   0.00000   0.00000   0.00000   0.00000   0.00000   0.00000   0.00000
-19.18838   0.00000   0.00000   0.00000   0.00000   0.00000   0.00000   0.00000   0.00000   0.00000
-19.13828   0.00000   0.00000   0.00000   0.00000   0.00000   0.00000   0.00000   0.00000   0.00000
-19.08818   0.00000   0.00000   0.00000   0.00000   0.00000   0.00000   0.00000   0.00000   0.00000
-19.03808   0.00000   0.00000   0.00000   0.00000   0.00000   0.00000   0.00000   0.00000   0.00000
-18.98798   0.00000   0.00000   0.00000   0.00000   0.00000   0.00000   0.00000   0.00000   0.00000
-18.93788   0.00000   0.00000   0.00000   0.00000   0.00000   0.00000   0.00000   0.00000   0.00000
-18.88778   0.00000   0.00000   0.00000   0.00000   0.00000   0.00000   0.00000   0.00000   0.00000
-18.83768   0.00000   0.00000   0.00000   0.00000   0.00000   0.00000   0.00000   0.00000   0.00000
-18.78758   0.00000   0.00000   0.00000   0.00000   0.00000   0.00000   0.00000   0.00000   0.00000
-18.73747   0.00000   0.00000   0.00000   0.00000   0.00000   0.00000   0.00000   0.00000   0.00000
-18.68737   0.00000   0.00000   0.00000   0.00000   0.00000   0.00000   0.00000   0.00000   0.00000
-18.63727   0.00000   0.00000   0.00000   0.00000   0.00000   0.00000   0.00000   0.00000   0.00000
-18.58717   0.00000   0.00000   0.00000   0.00000   0.00000   0.00000   0.00000   0.00000   0.00000
-18.53707   0.00000   0.00000   0.00000   0.00000   0.00000   0.00000   0.00000   0.00000   0.00000
-18.48697   0.00000   0.00000   0.00000   0.00000   0.00000   0.00000   0.00000   0.00000   0.00000
-18.43687   0.00383   0.00008   0.00104   0.00008   0.00000   0.00008   0.00002   0.00008   0.00001
-18.38677   0.02294   0.00051   0.00624   0.00051   0.00000   0.00053   0.00011   0.00053   0.00004
-18.33667   0.04340   0.00103   0.01180   0.00103   0.00000   0.00108   0.00020   0.00108   0.00008
-18.28657   0.06361   0.00161   0.01729   0.00161   0.00000   0.00169   0.00028   0.00169   0.00013
-18.23647   0.08354   0.00225   0.02269   0.00225   0.00000   0.00236   0.00037   0.00236   0.00019
-18.18637   0.10313   0.00311   0.02798   0.00311   0.00001   0.00326   0.00044   0.00326   0.00025
-18.13627   0.10617   0.00467   0.02872   0.00467   0.00001   0.00465   0.00041   0.00465   0.00038
-18.08617   0.09764   0.00508   0.02637   0.00508   0.00002   0.00487   0.00036   0.00487   0.00054
-18.03607   0.08921   0.00546   0.02404   0.00546   0.00002   0.00506   0.00032   0.00506   0.00071
-17.98597   0.08087   0.00581   0.02173   0.00581   0.00002   0.00522   0.00027   0.00522   0.00090
-17.93587   0.07277   0.00613   0.01950   0.00613   0.00002   0.00536   0.00023   0.00536   0.00110
-17.88577   0.07095   0.00673   0.01897   0.00673   0.00002   0.00573   0.00021   0.00573   0.00126
-17.83567   0.07235   0.00749   0.01932   0.00749   0.00002   0.00625   0.00021   0.00625   0.00141
-17.78557   0.07369   0.00827   0.01965   0.00827   0.00002   0.00678   0.00021   0.00678   0.00157
-17.73547   0.07496   0.00905   0.01997   0.00905   0.00003   0.00731   0.00020   0.00731   0.00172
-17.68537   0.07616   0.00985   0.02027   0.00985   0.00003   0.00785   0.00020   0.00785   0.00188
-17.63527   0.07730   0.01067   0.02054   0.01066   0.00003   0.00839   0.00020   0.00839   0.00204
-17.58517   0.07837   0.01149   0.02080   0.01149   0.00003   0.00894   0.00019   0.00894   0.00221
-17.53507   0.07938   0.01233   0.02105   0.01233   0.00004   0.00949   0.00019   0.00949   0.00238
-17.48497   0.09157   0.01518   0.02418   0.01517   0.00004   0.01158   0.00020   0.01158   0.00331
-17.43487   0.16977   0.03084   0.04442   0.03083   0.00007   0.02336   0.00031   0.02335   0.00873
-17.38477   0.15077   0.03006   0.03947   0.03005   0.00008   0.02236   0.00026   0.02236   0.00759
-17.33467   0.13215   0.02917   0.03461   0.02917   0.00008   0.02132   0.00021   0.02131   0.00649
-17.28457   0.08054   0.02401   0.02114   0.02400   0.00007   0.01664   0.00012   0.01663   0.00344
-17.23447   0.05383   0.02083   0.01415   0.02082   0.00006   0.01388   0.00007   0.01388   0.00193
-17.18437   0.04812   0.01999   0.01264   0.01998   0.00006   0.01320   0.00007   0.01320   0.00167
-17.13427   0.04258   0.01911   0.01118   0.01911   0.00005   0.01250   0.00006   0.01250   0.00143
-17.08417   0.03720   0.01820   0.00976   0.01819   0.00005   0.01178   0.00005   0.01178   0.00120
-17.03407   0.03199   0.01725   0.00839   0.01724   0.00005   0.01105   0.00004   0.01105   0.00098
-16.98397   0.02694   0.01626   0.00706   0.01625   0.00004   0.01030   0.00003   0.01030   0.00077
-16.93387   0.02207   0.01523   0.00577   0.01522   0.00004   0.00954   0.00002   0.00954   0.00056
-16.88377   0.02818   0.03311   0.00734   0.03310   0.00007   0.02002   0.00002   0.02001   0.00006
-16.83367   0.00000   0.00000   0.00000   0.00000   0.00000   0.00000   0.00000   0.00000   0.00000
-16.78357   0.00000   0.00000   0.00000   0.00000   0.00000   0.00000   0.00000   0.00000   0.00000
-16.73347   0.00000   0.00000   0.00000   0.00000   0.00000   0.00000   0.00000   0.00000   0.00000
-16.68337   0.00000   0.00000   0.00000   0.00000   0.00000   0.00000   0.00000   0.00000   0.00000
-16.63327   0.10552   0.16498   0.02344   0.16502   0.00004   0.08947   0.00004   0.08950   0.08310
-16.58317   0.07299   0.12038   0.01640   0.12041   0.00005   0.06416   0.00003   0.06417   0.07021
-16.53307   0.01958   0.02767   0.00433   0.02767   0.00001   0.01423   0.00001   0.01424   0.02689
-16.48297   0.01762   0.02522   0.00389   0.02522   0.00001   0.01287   0.00001   0.01287   0.02632
-16.43287   0.01573   0.02282   0.00346   0.02283   0.00001   0.01155   0.00001   0.01155   0.02567
-16.38277   0.01391   0.02047   0.00304   0.02048   0.00001   0.01026   0.00001   0.01026   0.02495
-16.33267   0.01216   0.01818   0.00265   0.01818   0.00000   0.00901   0.00000   0.00901   0.02415
-16.28257   0.01047   0.01593   0.00226   0.01593   0.00000   0.00779   0.00000   0.00779   0.02327
-16.23246   0.00886   0.01373   0.00189   0.01374   0.00000   0.00661   0.00000   0.00661   0.02232
-16.18236   0.00725   0.01190   0.00152   0.01190   0.00000   0.00559   0.00000   0.00559   0.02234
-16.13226   0.00524   0.01296   0.00102   0.01296   0.00000   0.00575   0.00000   0.00575   0.03279
-16.08216   0.00342   0.01332   0.00054   0.01332   0.00000   0.00561   0.00000   0.00561   0.04476
-16.03206   0.00169   0.00696   0.00023   0.00696   0.00000   0.00286   0.00000   0.00286   0.03482
-15.98196   0.00102   0.00425   0.00014   0.00425  -0.00000   0.00175   0.00000   0.00175   0.02347
-15.93186   0.00046   0.00193   0.00006   0.00193  -0.00000   0.00079   0.00000   0.00079   0.01183
-15.88176   0.00005   0.00022   0.00001   0.00022  -0.00000   0.00009   0.00000   0.00009   0.00146
-15.83166   0.00000   0.00000   0.00000   0.00000   0.00000   0.00000   0.00000   0.00000   0.00000
-15.78156   0.00000   0.00000   0.00000   0.00000   0.00000   0.00000   0.00000   0.00000   0.00000
-15.73146   0.00000   0.00000   0.00000   0.00000   0.00000   0.00000   0.00000   0.00000   0.00000
-15.68136   0.00000   0.00000   0.00000   0.00000   0.00000   0.00000   0.00000   0.00000   0.00000
-15.63126   0.00000   0.00000   0.00000   0.00000   0.00000   0.00000   0.00000   0.00000   0.00000
-15.58116   0.00000   0.00000   0.00000   0.00000   0.00000   0.00000   0.00000   0.00000   0.00000
-15.53106   0.00000   0.00000   0.00000   0.00000   0.00000   0.00000   0.00000   0.00000   0.00000
-15.48096   0.00000   0.00000   0.00000   0.00000   0.00000   0.00000   0.00000   0.00000   0.00000
-15.43086   0.00000   0.00000   0.00000   0.00000   0.00000   0.00000   0.00000   0.00000   0.00000
-15.38076   0.00000   0.00000   0.00000   0.00000   0.00000   0.00000   0.00000   0.00000   0.00000
-15.33066   0.00000   0.00000   0.00000   0.00000   0.00000   0.00000   0.00000   0.00000   0.00000
-15.28056   0.00000   0.00000   0.00000   0.00000   0.00000   0.00000   0.00000   0.00000   0.00000
-15.23046   0.00000   0.00000   0.00000   0.00000   0.00000   0.00000   0.00000   0.00000   0.00000
-15.18036   0.00000   0.00000   0.00000   0.00000   0.00000   0.00000   0.00000   0.00000   0.00000
-15.13026   0.00000   0.00000   0.00000   0.00000   0.00000   0.00000   0.00000   0.00000   0.00000
-15.08016   0.00000   0.00000   0.00000   0.00000   0.00000   0.00000   0.00000   0.00000   0.00000
-15.03006   0.00000   0.00000   0.00000   0.00000   0.00000   0.00000   0.00000   0.00000   0.00000
-14.97996   0.00000   0.00000   0.00000   0.00000   0.00000   0.00000   0.00000   0.00000   0.00000
-14.92986   0.00000   0.00000   0.00000   0.00000   0.00000   0.00000   0.00000   0.00000   0.00000
-14.87976   0.00000   0.00000   0.00000   0.00000   0.00000   0.00000   0.00000   0.00000   0.00000
-14.82966   0.00000   0.00000   0.00000   0.00000   0.00000   0.00000   0.00000   0.00000   0.00000
-14.77956   0.00000   0.00000   0.00000   0.00000   0.00000   0.00000   0.00000   0.00000   0.00000
-14.72946   0.00000   0.00000   0.00000   0.00000   0.00000   0.00000   0.00000   0.00000   0.00000
-14.67936   0.00000   0.00000   0.00000   0.00000   0.00000   0.00000   0.00000   0.00000   0.00000
-14.62926   0.00000   0.00000   0.00000   0.00000   0.00000   0.00000   0.00000   0.00000   0.00000
-14.57916   0.00000   0.00000   0.00000   0.00000   0.00000   0.00000   0.00000   0.00000   0.00000
-14.52906   0.00000   0.00000   0.00000   0.00000   0.00000   0.00000   0.00000   0.00000   0.00000
-14.47896   0.00000   0.00000   0.00000   0.00000   0.00000   0.00000   0.00000   0.00000   0.00000
-14.42886   0.00000   0.00000   0.00000   0.00000   0.00000   0.00000   0.00000   0.00000   0.00000
-14.37876   0.00000   0.00000   0.00000   0.00000   0.00000   0.00000   0.00000   0.00000   0.00000
-14.32866   0.00000   0.00000   0.00000   0.00000   0.00000   0.00000   0.00000   0.00000   0.00000
-14.27856   0.00000   0.00000   0.00000   0.00000   0.00000   0.00000   0.00000   0.00000   0.00000
-14.22846   0.00000   0.00000   0.00000   0.00000   0.00000   0.00000   0.00000   0.00000   0.00000
-14.17836   0.00000   0.00000   0.00000   0.00000   0.00000   0.00000   0.00000   0.00000   0.00000
-14.12826   0.00000   0.00000   0.00000   0.00000   0.00000   0.00000   0.00000   0.00000   0.00000
-14.07816   0.00000   0.00000   0.00000   0.00000   0.00000   0.00000   0.00000   0.00000   0.00000
-14.02806   0.00000   0.00000   0.00000   0.00000   0.00000   0.00000   0.00000   0.00000   0.00000
-13.97796   0.00000   0.00000   0.00000   0.00000   0.00000   0.00000   0.00000   0.00000   0.00000
-13.92786   0.00000   0.00000   0.00000   0.00000   0.00000   0.00000   0.00000   0.00000   0.00000
-13.87776   0.00000   0.00000   0.00000   0.00000   0.00000   0.00000   0.00000   0.00000   0.00000
-13.82766   0.00388   0.00017   0.00101   0.00017   0.00000   0.00000   0.00001   0.00000   0.00000
-13.77756   0.01734   0.00085   0.00464   0.00085   0.00001   0.00002   0.00006   0.00002   0.00000
-13.72745   0.03736   0.00206   0.01051   0.00206   0.00001   0.00006   0.00013   0.00006   0.00000
-13.67735   0.05717   0.00445   0.01786   0.00445   0.00004   0.00014   0.00019   0.00014   0.00000
-13.62725   0.06579   0.00702   0.02329   0.00702   0.00008   0.00024   0.00021   0.00024   0.00001
-13.57715   0.06256   0.00954   0.02460   0.00954   0.00013   0.00036   0.00018   0.00036   0.00001
-13.52705   0.05399   0.01165   0.02180   0.01165   0.00020   0.00046   0.00015   0.00046   0.00002
-13.47695   0.04839   0.01372   0.01943   0.01372   0.00030   0.00054   0.00014   0.00054   0.00002
-13.42685   0.04817   0.01629   0.01920   0.01629   0.00043   0.00064   0.00014   0.00064   0.00003
-13.37675   0.06628   0.02447   0.02255   0.02447   0.00065   0.00093   0.00026   0.00093   0.00005
-13.32665   0.09996   0.04551   0.03184   0.04551   0.00117   0.00176   0.00048   0.00176   0.00011
-13.27655   0.09853   0.04173   0.02909   0.04173   0.00185   0.00166   0.00061   0.00166   0.00008
-13.22645   0.10910   0.05077   0.02916   0.05077   0.00255   0.00202   0.00081   0.00202   0.00009
-13.17635   0.08369   0.09783   0.02101   0.09783   0.00447   0.00423   0.00083   0.00423   0.00023
-13.12625   0.01698   0.04302   0.00542   0.04302   0.00633   0.00195   0.00028   0.00195   0.00007
-13.07615   0.00083   0.00583   0.00069   0.00583   0.00218   0.00028   0.00005   0.00028   0.00000
-13.02605   0.00000   0.00000   0.00000   0.00000   0.00000   0.00000   0.00000   0.00000   0.00000
-12.97595   0.00000   0.00000   0.00000   0.00000   0.00000   0.00000   0.00000   0.00000   0.00000
-12.92585   0.00000   0.00000   0.00000   0.00000   0.00000   0.00000   0.00000   0.00000   0.00000
-12.87575   0.00000   0.00000   0.00000   0.00000   0.00000   0.00000   0.00000   0.00000   0.00000
-12.82565   0.00000   0.00000   0.00000   0.00000   0.00000   0.00000   0.00000   0.00000   0.00000
-12.77555   0.00000   0.00000   0.00000   0.00000   0.00000   0.00000   0.00000   0.00000   0.00000
-12.72545   0.00000   0.00000   0.00000   0.00000   0.00000   0.00000   0.00000   0.00000   0.00000
-12.67535   0.00000   0.00000   0.00000   0.00000   0.00000   0.00000   0.00000   0.00000   0.00000
-12.62525   0.00000   0.00000   0.00000   0.00000   0.00000   0.00000   0.00000   0.00000   0.00000
-12.57515   0.00000   0.00000   0.00000   0.00000   0.00000   0.00000   0.00000   0.00000   0.00000
-12.52505   0.00000   0.00000   0.00000   0.00000   0.00000   0.00000   0.00000   0.00000   0.00000
-12.47495   0.00000   0.00000   0.00000   0.00000   0.00000   0.00000   0.00000   0.00000   0.00000
-12.42485   0.00000   0.00000   0.00000   0.00000   0.00000   0.00000   0.00000   0.00000   0.00000
-12.37475   0.00000   0.00000   0.00000   0.00000   0.00000   0.00000   0.00000   0.00000   0.00000
-12.32465   0.00000   0.00000   0.00000   0.00000   0.00000   0.00000   0.00000   0.00000   0.00000
-12.27455   0.00000   0.00000   0.00000   0.00000   0.00000   0.00000   0.00000   0.00000   0.00000
-12.22445   0.00000   0.00000   0.00000   0.00000   0.00000   0.00000   0.00000   0.00000   0.00000
-12.17435   0.00000   0.00000   0.00000   0.00000   0.00000   0.00000   0.00000   0.00000   0.00000
-12.12425   0.00000   0.00000   0.00000   0.00000   0.00000   0.00000   0.00000   0.00000   0.00000
-12.07415   0.00000   0.00000   0.00000   0.00000   0.00000   0.00000   0.00000   0.00000   0.00000
-12.02405   0.00000   0.00000   0.00000   0.00000   0.00000   0.00000   0.00000   0.00000   0.00000
-11.97395   0.00000   0.00000   0.00000   0.00000   0.00000   0.00000   0.00000   0.00000   0.00000
-11.92385   0.00000   0.00000   0.00000   0.00000   0.00000   0.00000   0.00000   0.00000   0.00000
-11.87375   0.00000   0.00000   0.00000   0.00000   0.00000   0.00000   0.00000   0.00000   0.00000
-11.82365   0.00000   0.00000   0.00000   0.00000   0.00000   0.00000   0.00000   0.00000   0.00000
-11.77355   0.00000   0.00000   0.00000   0.00000   0.00000   0.00000   0.00000   0.00000   0.00000
-11.72345   0.00000   0.00000   0.00000   0.00000   0.00000   0.00000   0.00000   0.00000   0.00000
-11.67335   0.00000   0.00000   0.00000   0.00000   0.00000   0.00000   0.00000   0.00000   0.00000
-11.62325   0.00000   0.00000   0.00000   0.00000   0.00000   0.00000   0.00000   0.00000   0.00000
-11.57315   0.00000   0.00000   0.00000   0.00000   0.00000   0.00000   0.00000   0.00000   0.00000
-11.52305   0.00000   0.00000   0.00000   0.00000   0.00000   0.00000   0.00000   0.00000   0.00000
-11.47295   0.00000   0.00000   0.00000   0.00000   0.00000   0.00000   0.00000   0.00000   0.00000
-11.42285   0.00000   0.00000   0.00000   0.00000   0.00000   0.00000   0.00000   0.00000   0.00000
-11.37275   0.00000   0.00000   0.00000   0.00000   0.00000   0.00000   0.00000   0.00000   0.00000
-11.32265   0.00000   0.00000   0.00000   0.00000   0.00000   0.00000   0.00000   0.00000   0.00000
-11.27255   0.00000   0.00000   0.00000   0.00000   0.00000   0.00000   0.00000   0.00000   0.00000
-11.22244   0.00000   0.00000   0.00000   0.00000   0.00000   0.00000   0.00000   0.00000   0.00000
-11.17234   0.00000   0.00000   0.00000   0.00000   0.00000   0.00000   0.00000   0.00000   0.00000
-11.12224   0.00000   0.00000   0.00000   0.00000   0.00000   0.00000   0.00000   0.00000   0.00000
-11.07214   0.00000   0.00000   0.00000   0.00000   0.00000   0.00000   0.00000   0.00000   0.00000
-11.02204   0.00000   0.00000   0.00000   0.00000   0.00000   0.00000   0.00000   0.00000   0.00000
-10.97194   0.00000   0.00000   0.00000   0.00000   0.00000   0.00000   0.00000   0.00000   0.00000
-10.92184   0.00000   0.00000   0.00000   0.00000   0.00000   0.00000   0.00000   0.00000   0.00000
-10.87174   0.00000   0.00000   0.00000   0.00000   0.00000   0.00000   0.00000   0.00000   0.00000
-10.82164   0.00000   0.00000   0.00000   0.00000   0.00000   0.00000   0.00000   0.00000   0.00000
-10.77154   0.00000   0.00000   0.00000   0.00000   0.00000   0.00000   0.00000   0.00000   0.00000
-10.72144   0.00000   0.00000   0.00000   0.00000   0.00000   0.00000   0.00000   0.00000   0.00000
-10.67134   0.00000   0.00000   0.00000   0.00000   0.00000   0.00000   0.00000   0.00000   0.00000
-10.62124   0.00000   0.00000   0.00000   0.00000   0.00000   0.00000   0.00000   0.00000   0.00000
-10.57114   0.00000   0.00000   0.00000   0.00000   0.00000   0.00000   0.00000   0.00000   0.00000
-10.52104   0.00000   0.00000   0.00000   0.00000   0.00000   0.00000   0.00000   0.00000   0.00000
-10.47094   0.00000   0.00000   0.00000   0.00000   0.00000   0.00000   0.00000   0.00000   0.00000
-10.42084   0.00000   0.00000   0.00000   0.00000   0.00000   0.00000   0.00000   0.00000   0.00000
-10.37074   0.00000   0.00000   0.00000   0.00000   0.00000   0.00000   0.00000   0.00000   0.00000
-10.32064   0.00000   0.00000   0.00000   0.00000   0.00000   0.00000   0.00000   0.00000   0.00000
-10.27054   0.00000   0.00000   0.00000   0.00000   0.00000   0.00000   0.00000   0.00000   0.00000
-10.22044   0.00000   0.00000   0.00000   0.00000   0.00000   0.00000   0.00000   0.00000   0.00000
-10.17034   0.00000   0.00000   0.00000   0.00000   0.00000   0.00000   0.00000   0.00000   0.00000
-10.12024   0.00000   0.00000   0.00000   0.00000   0.00000   0.00000   0.00000   0.00000   0.00000
-10.07014   0.00000   0.00000   0.00000   0.00000   0.00000   0.00000   0.00000   0.00000   0.00000
-10.02004   0.00000   0.00000   0.00000   0.00000   0.00000   0.00000   0.00000   0.00000   0.00000
 -9.96994   0.00000   0.00000   0.00000   0.00000   0.00000   0.00000   0.00000   0.00000   0.00000
 -9.91984   0.00000   0.00000   0.00000   0.00000   0.00000   0.00000   0.00000   0.00000   0.00000
 -9.86974   0.00000   0.00000   0.00000   0.00000   0.00000   0.00000   0.00000   0.00000   0.00000
 -9.81964   0.00000   0.00000   0.00000   0.00000   0.00000   0.00000   0.00000   0.00000   0.00000
 -9.76954   1.24860  -0.00029   0.01261  -0.00029   0.00095   0.00016   0.00012   0.00016   0.00001
 -9.71944   0.91448  -0.00050   0.00479  -0.00050   0.00055   0.00015   0.00006   0.00015   0.00002
 -9.66934   1.13595  -0.00073   0.00376  -0.00073   0.00062   0.00020   0.00007   0.00020   0.00003
 -9.61924   1.51398  -0.00109   0.00113  -0.00109   0.00071   0.00029   0.00009   0.00029   0.00004
 -9.56914   2.51287  -0.00164  -0.01117  -0.00164   0.00074   0.00044   0.00021   0.00044   0.00009
 -9.51904   2.52278  -0.00103  -0.01821  -0.00103   0.00046   0.00033   0.00032   0.00033   0.00011
 -9.46894   3.48497  -0.00295  -0.01439  -0.00295   0.00086   0.00057   0.00060   0.00057   0.00012
 -9.41884   2.28167  -0.00107  -0.01803  -0.00107   0.00032   0.00026   0.00048   0.00026   0.00009
 -9.36874   1.10020  -0.00081  -0.00941  -0.00081   0.00017   0.00015   0.00034   0.00015   0.00003
 -9.31864   0.59907  -0.00089  -0.00399  -0.00089   0.00013   0.00013   0.00022   0.00013   0.00001
 -9.26854   0.41046  -0.00104  -0.00056  -0.00104   0.00013   0.00013   0.00011   0.00013   0.00000
 -9.21844   0.30900  -0.00117   0.00140  -0.00117   0.00012   0.00014   0.00005   0.00014   0.00000
 -9.16834   0.30690  -0.00126   0.00166  -0.00126   0.00012   0.00014   0.00004   0.00014   0.00000
 -9.11824   0.32236  -0.00136   0.00161  -0.00136   0.00012   0.00015   0.00004   0.00015   0.00000
 -9.06814   0.33781  -0.00146   0.00156  -0.00146   0.00012   0.00016   0.00004   0.00016   0.00000
 -9.01804   0.35325  -0.00155   0.00150  -0.00155   0.00012   0.00017   0.00004   0.00017   0.00000
 -8.96794   0.36869  -0.00165   0.00143  -0.00165   0.00012   0.00018   0.00004   0.00018   0.00000
 -8.91784   0.40379  -0.00183   0.00135  -0.00183   0.00012   0.00020   0.00004   0.00020   0.00000
 -8.86774   0.60881  -0.00254   0.00125  -0.00254   0.00011   0.00029   0.00003   0.00029  -0.00000
 -8.81764   0.71247  -0.00272   0.00146  -0.00272   0.00010   0.00032   0.00003   0.00032  -0.00000
 -8.76754   0.75375  -0.00265   0.00182  -0.00265   0.00009   0.00031   0.00003   0.00031  -0.00000
 -8.71743   0.79498  -0.00257   0.00220  -0.00257   0.00008   0.00031   0.00003   0.00031  -0.00000
 -8.66733   0.74907  -0.00232   0.00225  -0.00232   0.00007   0.00028   0.00002   0.00028  -0.00000
 -8.61723   0.43214  -0.00171   0.00140  -0.00171   0.00004   0.00017   0.00002   0.00017  -0.00000
 -8.56713   0.33296  -0.00155   0.00118  -0.00155   0.00004   0.00014   0.00002   0.00014  -0.00000
 -8.51703   0.32474  -0.00152   0.00119  -0.00152   0.00004   0.00013   0.00001   0.00013  -0.00000
 -8.46693   0.31651  -0.00149   0.00120  -0.00149   0.00003   0.00013   0.00001   0.00013  -0.00000
 -8.41683   0.30829  -0.00147   0.00121  -0.00147   0.00003   0.00012   0.00001   0.00012  -0.00000
 -8.36673   0.30008  -0.00144   0.00121  -0.00144   0.00003   0.00012   0.00001   0.00012  -0.00000
 -8.31663   0.29188  -0.00141   0.00122  -0.00141   0.00003   0.00011   0.00001   0.00011  -0.00000
 -8.26653   0.28368  -0.00137   0.00123  -0.00137   0.00002   0.00011   0.00001   0.00011  -0.00000
 -8.21643   0.27548  -0.00134   0.00124  -0.00134   0.00002   0.00011   0.00001   0.00011  -0.00000
 -8.16633   0.26729  -0.00131   0.00125  -0.00131   0.00002   0.00010   0.00001   0.00010  -0.00000
 -8.11623   0.25911  -0.00127   0.00126  -0.00127   0.00002   0.00010   0.00001   0.00010  -0.00000
 -8.06613   0.25093  -0.00124   0.00126  -0.00124   0.00002   0.00009   0.00001   0.00009  -0.00000
 -8.01603   0.24276  -0.00120   0.00127  -0.00120   0.00001   0.00009   0.00001   0.00009  -0.00000
 -7.96593   0.23495  -0.00116   0.00128  -0.00116   0.00001   0.00008   0.00001   0.00008  -0.00000
 -7.91583   0.23082  -0.00115   0.00134  -0.00115   0.00001   0.00008   0.00001   0.00008  -0.00000
 -7.86573   0.23087  -0.00115   0.00143  -0.00115   0.00001   0.00008   0.00001   0.00008  -0.00000
 -7.81563   0.23480  -0.00118   0.00156  -0.00118   0.00001   0.00008   0.00001   0.00008  -0.00000
 -7.76553   0.23931  -0.00120   0.00169  -0.00120   0.00001   0.00007   0.00001   0.00007  -0.00000
 -7.71543   0.24380  -0.00121   0.00183  -0.00121   0.00001   0.00007   0.00001   0.00007  -0.00000
 -7.66533   0.24826  -0.00122   0.00197  -0.00122   0.00001   0.00007   0.00001   0.00007  -0.00000
 -7.61523   0.25270  -0.00122   0.00212  -0.00122   0.00000   0.00007   0.00001   0.00007  -0.00000
 -7.56513   0.25285  -0.00118   0.00225  -0.00118   0.00000   0.00006   0.00001   0.00006  -0.00000
 -7.51503   0.23834  -0.00103   0.00226  -0.00103   0.00000   0.00005   0.00001   0.00005  -0.00000
 -7.46493   0.22151  -0.00088   0.00218  -0.00088   0.00000   0.00005   0.00001   0.00005  -0.00000
 -7.41483   0.19557  -0.00068   0.00203  -0.00068   0.00000   0.00004   0.00000   0.00004  -0.00000
 -7.36473   0.17393  -0.00057   0.00183  -0.00057   0.00000   0.00003   0.00000   0.00003  -0.00000
 -7.31463   0.15450  -0.00050   0.00163  -0.00050   0.00000   0.00003   0.00000   0.00003  -0.00000
 -7.26453   0.13510  -0.00042   0.00143  -0.00042   0.00000   0.00002   0.00000   0.00002  -0.00000
 -7.21443   0.11571  -0.00035   0.00123  -0.00035   0.00000   0.00002   0.00000   0.00002  -0.00000
 -7.16433   0.09636  -0.00029   0.00102  -0.00029   0.00000   0.00001   0.00000   0.00001  -0.00000
 -7.11423   0.07703  -0.00022   0.00081  -0.00022   0.00000   0.00001   0.00000   0.00001  -0.00000
 -7.06413   0.05772  -0.00016   0.00060  -0.00016   0.00000   0.00001   0.00000   0.00001  -0.00000
 -7.01403   0.03844  -0.00011   0.00038  -0.00011   0.00000   0.00001   0.00000   0.00001  -0.00000
 -6.96393   0.02148  -0.00006   0.00020  -0.00006   0.00000   0.00000   0.00000   0.00000  -0.00000
 -6.91383   0.00981  -0.00003   0.00009  -0.00003   0.00000   0.00000   0.00000   0.00000  -0.00000
 -6.86373   0.00228  -0.00001   0.00002  -0.00001   0.00000   0.00000   0.00000   0.00000  -0.00000
 -6.81363   0.00003  -0.00000   0.00000  -0.00000   0.00000   0.00000   0.00000   0.00000  -0.00000
 -6.76353   0.00000   0.00000   0.00000   0.00000   0.00000   0.00000   0.00000   0.00000   0.00000
 -6.71343   0.00000   0.00000   0.00000   0.00000   0.00000   0.00000   0.00000   0.00000   0.00000
 -6.66333   0.00000   0.00000   0.00000   0.00000   0.00000   0.00000   0.00000   0.00000   0.00000
 -6.61323   0.00000   0.00000   0.00000   0.00000   0.00000   0.00000   0.00000   0.00000   0.00000
 -6.56313   0.00000   0.00000   0.00000   0.00000   0.00000   0.00000   0.00000   0.00000   0.00000
 -6.51303   0.00000   0.00000   0.00000   0.00000   0.00000   0.00000   0.00000   0.00000   0.00000
 -6.46293   0.00000   0.00000   0.00000   0.00000   0.00000   0.00000   0.00000   0.00000   0.00000
 -6.41283   0.00000   0.00000   0.00000   0.00000   0.00000   0.00000   0.00000   0.00000   0.00000
 -6.36273   0.00000   0.00000   0.00000   0.00000   0.00000   0.00000   0.00000   0.00000   0.00000
 -6.31263   0.00000   0.00000   0.00000   0.00000   0.00000   0.00000   0.00000   0.00000   0.00000
 -6.26253   0.00000   0.00000   0.00000   0.00000   0.00000   0.00000   0.00000   0.00000   0.00000
 -6.21242   0.00000   0.00000   0.00000   0.00000   0.00000   0.00000   0.00000   0.00000   0.00000
 -6.16232   0.00000   0.00000   0.00000   0.00000   0.00000   0.00000   0.00000   0.00000   0.00000
 -6.11222   0.00000   0.00000   0.00000   0.00000   0.00000   0.00000   0.00000   0.00000   0.00000
 -6.06212   0.00000   0.00000   0.00000   0.00000   0.00000   0.00000   0.00000   0.00000   0.00000
 -6.01202   0.00000   0.00000   0.00000   0.00000   0.00000   0.00000   0.00000   0.00000   0.00000
 -5.96192   0.00000   0.00000   0.00000   0.00000   0.00000   0.00000   0.00000   0.00000   0.00000
 -5.91182   0.00000   0.00000   0.00000   0.00000   0.00000   0.00000   0.00000   0.00000   0.00000
 -5.86172   0.00000   0.00000   0.00000   0.00000   0.00000   0.00000   0.00000   0.00000   0.00000
 -5.81162   0.00000   0.00000   0.00000   0.00000   0.00000   0.00000   0.00000   0.00000   0.00000
 -5.76152   0.00000   0.00000   0.00000   0.00000   0.00000   0.00000   0.00000   0.00000   0.00000
 -5.71142   0.00000   0.00000   0.00000   0.00000   0.00000   0.00000   0.00000   0.00000   0.00000
 -5.66132   0.00000   0.00000   0.00000   0.00000   0.00000   0.00000   0.00000   0.00000   0.00000
 -5.61122   0.00000   0.00000   0.00000   0.00000   0.00000   0.00000   0.00000   0.00000   0.00000
 -5.56112   0.00000   0.00000   0.00000   0.00000   0.00000   0.00000   0.00000   0.00000   0.00000
 -5.51102   0.00000   0.00000   0.00000   0.00000   0.00000   0.00000   0.00000   0.00000   0.00000
 -5.46092   0.00000   0.00000   0.00000   0.00000   0.00000   0.00000   0.00000   0.00000   0.00000
 -5.41082   0.00000   0.00000   0.00000   0.00000   0.00000   0.00000   0.00000   0.00000   0.00000
 -5.36072   0.00000   0.00000   0.00000   0.00000   0.00000   0.00000   0.00000   0.00000   0.00000
 -5.31062   0.00000   0.00000   0.00000   0.00000   0.00000   0.00000   0.00000   0.00000   0.00000
 -5.26052   0.00000   0.00000   0.00000   0.00000   0.00000   0.00000   0.00000   0.00000   0.00000
 -5.21042   0.00000   0.00000   0.00000   0.00000   0.00000   0.00000   0.00000   0.00000   0.00000
 -5.16032   0.00000   0.00000   0.00000   0.00000   0.00000   0.00000   0.00000   0.00000   0.00000
 -5.11022   0.00000   0.00000   0.00000   0.00000   0.00000   0.00000   0.00000   0.00000   0.00000
 -5.06012   0.00000   0.00000   0.00000   0.00000   0.00000   0.00000   0.00000   0.00000   0.00000
 -5.01002   0.00000   0.00000   0.00000   0.00000   0.00000   0.00000   0.00000   0.00000   0.00000
 -4.95992   0.00000   0.00000   0.00000   0.00000   0.00000   0.00000   0.00000   0.00000   0.00000
 -4.90982   0.00000   0.00000   0.00000   0.00000   0.00000   0.00000   0.00000   0.00000   0.00000
 -4.85972   0.00000   0.00000   0.00000   0.00000   0.00000   0.00000   0.00000   0.00000   0.00000
 -4.80962   0.00000   0.00000   0.00000   0.00000   0.00000   0.00000   0.00000   0.00000   0.00000
 -4.75952   0.00013   0.00260   0.00202   0.00260   0.00001   0.00002   0.00002   0.00002   0.00000
 -4.70942   0.03429   0.42123   0.30753   0.42025   0.00147   0.00231   0.00194   0.00230   0.00071
 -4.65932   0.02455   0.37963   0.22720   0.37542   0.00112   0.00237   0.00196   0.00230   0.00083
 -4.60922   0.01153   0.25443   0.14621   0.24618   0.00073   0.00226   0.00156   0.00211   0.00086
 -4.55912   0.00378   0.17457   0.08528   0.16160   0.00039   0.00207   0.00114   0.00183   0.00079
 -4.50902   0.00269   0.18079   0.07771   0.16245   0.00032   0.00227   0.00113   0.00195   0.00087
 -4.45892   0.00217   0.22489   0.07684   0.19963   0.00027   0.00295   0.00126   0.00249   0.00108
 -4.40882   0.00174   0.15379   0.06590   0.15086   0.00022   0.00185   0.00090   0.00180   0.00098
 -4.35872   0.00171   0.16417   0.05629   0.17396   0.00021   0.00112   0.00062   0.00129   0.00098
 -4.30862   0.00182   0.17564   0.05764   0.18771   0.00023   0.00120   0.00056   0.00141   0.00103
 -4.25852   0.00230   0.22477   0.06529   0.23834   0.00028   0.00130   0.00052   0.00154   0.00121
 -4.20842   0.00394   0.27729   0.09553   0.28488   0.00040   0.00119   0.00051   0.00133   0.00164
 -4.15832   0.00614   0.28350   0.13846   0.28909   0.00060   0.00133   0.00052   0.00143   0.00205
 -4.10822   0.00430   0.21075   0.10206   0.21569   0.00046   0.00129   0.00038   0.00138   0.00162
 -4.05812   0.00338   0.17270   0.08242   0.17701   0.00041   0.00124   0.00025   0.00131   0.00135
 -4.00802   0.00272   0.14582   0.06910   0.14953   0.00037   0.00114   0.00014   0.00121   0.00113
 -3.95792   0.00243   0.13570   0.06503   0.13884   0.00034   0.00107   0.00012   0.00113   0.00109
 -3.90782   0.00217   0.12667   0.06176   0.12925   0.00032   0.00101   0.00012   0.00106   0.00106
 -3.85772   0.00191   0.11760   0.05865   0.11966   0.00030   0.00095   0.00011   0.00098   0.00104
 -3.80762   0.00166   0.10850   0.05570   0.11005   0.00028   0.00088   0.00010   0.00091   0.00102
 -3.75752   0.00142   0.09936   0.05290   0.10044   0.00026   0.00082   0.00010   0.00084   0.00099
 -3.70741   0.00119   0.09020   0.05027   0.09082   0.00024   0.00076   0.00009   0.00077   0.00097
 -3.65731   0.01388   0.08330   0.08280   0.08352   0.00043   0.00068   0.00009   0.00068   0.00091
 -3.60721   0.01709   0.06401   0.07824   0.06404   0.00044   0.00054   0.00007   0.00054   0.00062
 -3.55711   0.01420   0.04119   0.05526   0.04119   0.00034   0.00035   0.00004   0.00035   0.00032
 -3.50701   0.01671   0.03074   0.05252   0.03073   0.00034   0.00023   0.00002   0.00023   0.00013
 -3.45691   0.02007   0.04275   0.06282   0.04274   0.00041   0.00030   0.00003   0.00030   0.00020
 -3.40681   0.02373   0.05899   0.07788   0.05898   0.00049   0.00037   0.00004   0.00037   0.00037
 -3.35671   0.04287   0.08526   0.13831   0.08525   0.00073   0.00045   0.00007   0.00045   0.00060
 -3.30661   0.03366   0.11611   0.13511   0.11608   0.00067   0.00049   0.00012   0.00049   0.00128
 -3.25651   0.03634   0.14799   0.15463   0.14796   0.00072   0.00050   0.00014   0.00050   0.00174
 -3.20641   0.03765   0.17799   0.16811   0.17795   0.00075   0.00049   0.00015   0.00049   0.00211
 -3.15631   0.03657   0.19860   0.17264   0.19855   0.00074   0.00046   0.00014   0.00046   0.00226
 -3.10621   0.02047   0.16706   0.10247   0.16702   0.00049   0.00036   0.00010   0.00036   0.00199
 -3.05611   0.00657   0.10998   0.05357   0.10997   0.00020   0.00023   0.00007   0.00023   0.00152
 -3.00601   0.02198   0.20800   0.18636   0.20805   0.00050   0.00041   0.00015   0.00041   0.00180
 -2.95591   0.03307   0.25657   0.31517   0.25664   0.00080   0.00054   0.00022   0.00054   0.00203
 -2.90581   0.02402   0.19567   0.29546   0.19571   0.00062   0.00049   0.00022   0.00049   0.00171
 -2.85571   0.01626   0.13440   0.20915   0.13443   0.00040   0.00034   0.00018   0.00034   0.00142
 -2.80561   0.01318   0.10922   0.16967   0.10927   0.00030   0.00028   0.00016   0.00028   0.00128
 -2.75551   0.01145   0.09523   0.15537   0.09532   0.00025   0.00027   0.00016   0.00027   0.00120
 -2.70541   0.01032   0.08035   0.14016   0.08048   0.00021   0.00027   0.00015   0.00027   0.00104
 -2.65531   0.00958   0.06849   0.12797   0.06866   0.00019   0.00029   0.00014   0.00029   0.00091
 -2.60521   0.00905   0.05987   0.11819   0.06008   0.00018   0.00033   0.00014   0.00033   0.00084
 -2.55511   0.00938   0.06420   0.12058   0.06447   0.00026   0.00055   0.00014   0.00055   0.00082
 -2.50501   0.06538   0.10300   0.22995   0.10330   0.00067   0.00085   0.00018   0.00085   0.00090
 -2.45491   0.05522   0.08083   0.23079   0.08118   0.00060   0.00094   0.00020   0.00094   0.00095
 -2.40481   0.07136   0.09151   0.28244   0.09191   0.00070   0.00110   0.00022   0.00110   0.00105
 -2.35471   0.14186   0.11955   0.47500   0.11998   0.00103   0.00143   0.00030   0.00143   0.00138
 -2.30461   0.09136   0.12027   0.42006   0.12063   0.00091   0.00169   0.00033   0.00169   0.00164
 -2.25451   0.03861   0.08662   0.25664   0.08685   0.00051   0.00132   0.00026   0.00132   0.00109
 -2.20441   0.02729   0.07400   0.20067   0.07406   0.00037   0.00112   0.00022   0.00112   0.00086
 -2.15431   0.02382   0.06993   0.17099   0.07019   0.00029   0.00098   0.00019   0.00098   0.00075
 -2.10421   0.02154   0.06848   0.14963   0.06819   0.00024   0.00090   0.00016   0.00090   0.00072
 -2.05411   0.02138   0.07144   0.13269   0.06965   0.00022   0.00086   0.00013   0.00086   0.00066
 -2.00401   0.03780   0.07942   0.12812   0.07677   0.00049   0.00106   0.00014   0.00105   0.00064
 -1.95391   0.02435   0.07263   0.09746   0.06890   0.00034   0.00095   0.00010   0.00094   0.00063
 -1.90381   0.02193   0.06758   0.06691   0.06396   0.00036   0.00093   0.00007   0.00092   0.00051
 -1.85371   0.02103   0.07635   0.05372   0.07328   0.00039   0.00107   0.00007   0.00106   0.00066
 -1.80361   0.02018   0.11079   0.04357   0.10935   0.00044   0.00152   0.00009   0.00151   0.00132
 -1.75351   0.03059   0.11387   0.03959   0.11705   0.00055   0.00169   0.00008   0.00170   0.00163
 -1.70341   0.02134   0.08017   0.02536   0.08514   0.00042   0.00146   0.00005   0.00147   0.00164
 -1.65331   0.01589   0.04531   0.01605   0.04944   0.00026   0.00093   0.00003   0.00095   0.00120
 -1.60321   0.01628   0.03106   0.01706   0.03219   0.00022   0.00074   0.00003   0.00074   0.00077
 -1.55311   0.01920   0.02899   0.02291   0.02897   0.00024   0.00069   0.00005   0.00069   0.00070
 -1.50301   0.02231   0.03110   0.03140   0.03101   0.00028   0.00080   0.00007   0.00080   0.00082
 -1.45291   0.03032   0.04684   0.05672   0.04635   0.00054   0.00152   0.00014   0.00143   0.00141
 -1.40281   0.03317   0.05906   0.07524   0.05752   0.00084   0.00232   0.00019   0.00207   0.00179
 -1.35271   0.02748   0.04896   0.06118   0.04793   0.00079   0.00216   0.00017   0.00195   0.00182
 -1.30261   0.02509   0.04544   0.05583   0.04559   0.00080   0.00188   0.00017   0.00187   0.00199
 -1.25251   0.02348   0.04450   0.05311   0.04539   0.00086   0.00176   0.00016   0.00191   0.00219
 -1.20240   0.01967   0.04079   0.04957   0.04201   0.00088   0.00184   0.00016   0.00207   0.00275
 -1.15230   0.01399   0.03301   0.04041   0.03379   0.00073   0.00162   0.00013   0.00177   0.00283
 -1.10220   0.00909   0.02315   0.02425   0.02344   0.00057   0.00125   0.00011   0.00130   0.00230
 -1.05210   0.01716   0.02129   0.02931   0.02159   0.00054   0.00090   0.00008   0.00092   0.00159
 -1.00200   0.08702   0.05559   0.05445   0.05635   0.00141   0.00250   0.00019   0.00256   0.00589
 -0.95190   0.11513   0.05384   0.06562   0.05451   0.00101   0.00271   0.00026   0.00277   0.00837
 -0.90180   0.10432   0.03116   0.07604   0.03126   0.00052   0.00167   0.00023   0.00168   0.00455
 -0.85170   0.07498   0.02620   0.04874   0.02524   0.00033   0.00176   0.00017   0.00168   0.00220
 -0.80160   0.06633   0.01544   0.03516   0.01504   0.00019   0.00113   0.00014   0.00110   0.00136
 -0.75150   0.08236   0.01469   0.03780   0.01440   0.00016   0.00113   0.00015   0.00110   0.00327
 -0.70140   0.11107   0.01433   0.04428   0.01417   0.00014   0.00087   0.00016   0.00086   0.00217
 -0.65130   0.13574   0.01232   0.05034   0.01224   0.00013   0.00070   0.00021   0.00069   0.00153
 -0.60120   0.16915   0.01226   0.06145   0.01225   0.00014   0.00059   0.00028   0.00058   0.00126
 -0.55110   0.32114   0.02039   0.09774   0.02039   0.00021   0.00083   0.00051   0.00083   0.00113
 -0.50100   0.35317   0.02015   0.09014   0.02015   0.00023   0.00065   0.00067   0.00065   0.00092
 -0.45090   0.33769   0.01679   0.07739   0.01679   0.00023   0.00052   0.00079   0.00052   0.00072
 -0.40080   0.37510   0.01481   0.07773   0.01481   0.00027   0.00045   0.00107   0.00045   0.00050
 -0.35070   0.34489   0.01157   0.06465   0.01157   0.00023   0.00033   0.00100   0.00033   0.00020
 -0.30060   0.23449   0.00669   0.04283   0.00669   0.00012   0.00020   0.00062   0.00020   0.00011
 -0.25050   0.15121   0.00369   0.02829   0.00369   0.00007   0.00012   0.00030   0.00012   0.00005
 -0.20040   0.11208   0.00224   0.02006   0.00224   0.00005   0.00008   0.00022   0.00008   0.00003
 -0.15030   0.08004   0.00136   0.01365   0.00135   0.00003   0.00005   0.00014   0.00005   0.00002
 -0.10020   0.05324   0.00078   0.00879   0.00078   0.00002   0.00003   0.00008   0.00003   0.00001
 -0.05010   0.02404   0.00028   0.00383   0.00028   0.00000   0.00001   0.00003   0.00001   0.00000
 -0.00000   0.00000   0.00000   0.00000   0.00000   0.00000   0.00000   0.00000   0.00000   0.00000
  0.05010   0.00000   0.00000   0.00000   0.00000   0.00000   0.00000   0.00000   0.00000   0.00000
  0.10020   0.00000   0.00000   0.00000   0.00000   0.00000   0.00000   0.00000   0.00000   0.00000
  0.15030   0.00000   0.00000   0.00000   0.00000   0.00000   0.00000   0.00000   0.00000   0.00000
  0.20040   0.00000   0.00000   0.00000   0.00000   0.00000   0.00000   0.00000   0.00000   0.00000
  0.25050   0.00000   0.00000   0.00000   0.00000   0.00000   0.00000   0.00000   0.00000   0.00000
  0.30060   0.00000   0.00000   0.00000   0.00000   0.00000   0.00000   0.00000   0.00000   0.00000
  0.35070   0.00000   0.00000   0.00000   0.00000   0.00000   0.00000   0.00000   0.00000   0.00000
  0.40080   0.00000   0.00000   0.00000   0.00000   0.00000   0.00000   0.00000   0.00000   0.00000
  0.45090   0.00000   0.00000   0.00000   0.00000   0.00000   0.00000   0.00000   0.00000   0.00000
  0.50100   0.00000   0.00000   0.00000   0.00000   0.00000   0.00000   0.00000   0.00000   0.00000
  0.55110   0.00000   0.00000   0.00000   0.00000   0.00000   0.00000   0.00000   0.00000   0.00000
  0.60120   0.00000   0.00000   0.00000   0.00000   0.00000   0.00000   0.00000   0.00000   0.00000
  0.65130   0.00000   0.00000   0.00000   0.00000   0.00000   0.00000   0.00000   0.00000   0.00000
  0.70140   0.00000   0.00000   0.00000   0.00000   0.00000   0.00000   0.00000   0.00000   0.00000
  0.75150   0.00000   0.00000   0.00000   0.00000   0.00000   0.00000   0.00000   0.00000   0.00000
  0.80160   0.00000   0.00000   0.00000   0.00000   0.00000   0.00000   0.00000   0.00000   0.00000
  0.85170   0.00000   0.00000   0.00000   0.00000   0.00000   0.00000   0.00000   0.00000   0.00000
  0.90180   0.00000   0.00000   0.00000   0.00000   0.00000   0.00000   0.00000   0.00000   0.00000
  0.95190   0.00000   0.00000   0.00000   0.00000   0.00000   0.00000   0.00000   0.00000   0.00000
  1.00200   0.00000   0.00000   0.00000   0.00000   0.00000   0.00000   0.00000   0.00000   0.00000
  1.05210   0.00000   0.00000   0.00000   0.00000   0.00000   0.00000   0.00000   0.00000   0.00000
  1.10220   0.00000   0.00000   0.00000   0.00000   0.00000   0.00000   0.00000   0.00000   0.00000
  1.15230   0.00000   0.00000   0.00000   0.00000   0.00000   0.00000   0.00000   0.00000   0.00000
  1.20240   0.00000   0.00000   0.00000   0.00000   0.00000   0.00000   0.00000   0.00000   0.00000
  1.25251   0.00000   0.00000   0.00000   0.00000   0.00000   0.00000   0.00000   0.00000   0.00000
  1.30261   0.00000   0.00000   0.00000   0.00000   0.00000   0.00000   0.00000   0.00000   0.00000
  1.35271   0.00000   0.00000   0.00000   0.00000   0.00000   0.00000   0.00000   0.00000   0.00000
  1.40281   0.00000   0.00000   0.00000   0.00000   0.00000   0.00000   0.00000   0.00000   0.00000
  1.45291   0.00000   0.00000   0.00000   0.00000   0.00000   0.00000   0.00000   0.00000   0.00000
  1.50301   0.00000   0.00000   0.00000   0.00000   0.00000   0.00000   0.00000   0.00000   0.00000
  1.55311   0.00000   0.00000   0.00000   0.00000   0.00000   0.00000   0.00000   0.00000   0.00000
  1.60321   0.00000   0.00000   0.00000   0.00000   0.00000   0.00000   0.00000   0.00000   0.00000
  1.65331   0.00000   0.00000   0.00000   0.00000   0.00000   0.00000   0.00000   0.00000   0.00000
  1.70341   0.00000   0.00000   0.00000   0.00000   0.00000   0.00000   0.00000   0.00000   0.00000
  1.75351   0.00000   0.00000   0.00000   0.00000   0.00000   0.00000   0.00000   0.00000   0.00000
  1.80361   0.00000   0.00000   0.00000   0.00000   0.00000   0.00000   0.00000   0.00000   0.00000
  1.85371   0.00000   0.00000   0.00000   0.00000   0.00000   0.00000   0.00000   0.00000   0.00000
  1.90381   0.00000   0.00000   0.00000   0.00000   0.00000   0.00000   0.00000   0.00000   0.00000
  1.95391   0.00000   0.00000   0.00000   0.00000   0.00000   0.00000   0.00000   0.00000   0.00000
  2.00401   0.00000   0.00000   0.00000   0.00000   0.00000   0.00000   0.00000   0.00000   0.00000
  2.05411   0.00000   0.00000   0.00000   0.00000   0.00000   0.00000   0.00000   0.00000   0.00000
  2.10421   0.00000   0.00000   0.00000   0.00000   0.00000   0.00000   0.00000   0.00000   0.00000
  2.15431   0.00000   0.00000   0.00000   0.00000   0.00000   0.00000   0.00000   0.00000   0.00000
  2.20441   0.00000   0.00000   0.00000   0.00000   0.00000   0.00000   0.00000   0.00000   0.00000
  2.25451   0.00000   0.00000   0.00000   0.00000   0.00000   0.00000   0.00000   0.00000   0.00000
  2.30461   0.00000   0.00000   0.00000   0.00000   0.00000   0.00000   0.00000   0.00000   0.00000
  2.35471   0.00000   0.00000   0.00000   0.00000   0.00000   0.00000   0.00000   0.00000   0.00000
  2.40481   0.00000   0.00000   0.00000   0.00000   0.00000   0.00000   0.00000   0.00000   0.00000
  2.45491   0.00000   0.00000   0.00000   0.00000   0.00000   0.00000   0.00000   0.00000   0.00000
  2.50501   0.00000   0.00000   0.00000   0.00000   0.00000   0.00000   0.00000   0.00000   0.00000
  2.55511   0.00000   0.00000   0.00000   0.00000   0.00000   0.00000   0.00000   0.00000   0.00000
  2.60521  -0.00000   0.00001   0.00025   0.00001   0.00000   0.00000   0.00000   0.00000   0.00000
  2.65531  -0.00001   0.00010   0.00202   0.00010   0.00000   0.00000   0.00000   0.00000   0.00000
  2.70541  -0.00003   0.00025   0.00461   0.00025   0.00000   0.00000   0.00000   0.00000   0.00000
  2.75551  -0.00005   0.00044   0.00787   0.00044   0.00000   0.00000   0.00000   0.00000   0.00000
  2.80561  -0.00007   0.00068   0.01178   0.00068   0.00000   0.00000   0.00000   0.00000   0.00000
  2.85571  -0.00010   0.00097   0.01640   0.00097   0.00000   0.00000   0.00000   0.00000   0.00000
  2.90581  -0.00013   0.00137   0.02199   0.00137   0.00000   0.00000   0.00000   0.00000   0.00000
  2.95591  -0.00016   0.00188   0.02859   0.00188   0.00000   0.00000   0.00000   0.00000   0.00000
  3.00601  -0.00020   0.00249   0.03607   0.00249   0.00000   0.00000   0.00000   0.00000   0.00000
  3.05611  -0.00025   0.00315   0.04480   0.00315   0.00000   0.00000   0.00000   0.00000   0.00000
  3.10621  -0.00032   0.00385   0.05476   0.00385   0.00000   0.00000   0.00000   0.00000   0.00000
  3.15631  -0.00040   0.00458   0.06519   0.00458   0.00000   0.00001   0.00000   0.00001   0.00000
  3.20641  -0.00048   0.00535   0.07609   0.00535   0.00000   0.00001   0.00000   0.00001   0.00000
  3.25651  -0.00058   0.00616   0.08745   0.00616   0.00000   0.00001   0.00000   0.00001   0.00000
  3.30661  -0.00067   0.00699   0.09928   0.00699   0.00000   0.00001   0.00000   0.00001   0.00000
  3.35671  -0.00078   0.00787   0.11158   0.00787   0.00000   0.00001   0.00000   0.00001   0.00000
  3.40681  -0.00089   0.00878   0.12435   0.00878   0.00000   0.00001   0.00001   0.00001   0.00000
  3.45691  -0.00101   0.00973   0.13782   0.00973   0.00000   0.00001   0.00001   0.00001   0.00000
  3.50701  -0.00113   0.01073   0.15254   0.01073   0.00000   0.00002   0.00001   0.00002   0.00000
  3.55711  -0.00127   0.01179   0.16857   0.01179   0.00000   0.00002   0.00001   0.00002   0.00000
  3.60721  -0.00141   0.01290   0.18591   0.01290   0.00000   0.00002   0.00001   0.00002   0.00000
  3.65731  -0.00191   0.02038   0.24745   0.02038   0.00000   0.00003   0.00001   0.00003   0.00001
  3.70741  -0.00381   0.06830   0.39350   0.06830   0.00001   0.00006   0.00001   0.00006   0.00002
  3.75752  -0.00820   0.27079   0.50743   0.27079   0.00001   0.00010   0.00002   0.00010   0.00009
  3.80762  -0.00845   0.35113   0.48923   0.35112   0.00001   0.00011   0.00002   0.00011   0.00010
  3.85772  -0.00885   0.40114   0.50591   0.40114   0.00001   0.00012   0.00002   0.00012   0.00012
  3.90782  -0.00858   0.49813   0.56964   0.49812   0.00001   0.00015   0.00003   0.00015   0.00012
  3.95792  -0.01124   0.53480   0.58654   0.53479   0.00001   0.00018   0.00003   0.00018   0.00013
  4.00802  -0.01278   0.59090   0.50523   0.59089   0.00001   0.00018   0.00003   0.00018   0.00015
  4.05812  -0.01259   0.59933   0.46610   0.59932   0.00001   0.00018   0.00003   0.00018   0.00016
  4.10822  -0.01151   0.51853   0.43120   0.51852   0.00001   0.00019   0.00003   0.00019   0.00016
  4.15832  -0.00961   0.40320   0.39333   0.40319   0.00001   0.00019   0.00003   0.00019   0.00016
  4.20842  -0.00766   0.31890   0.36488   0.31889   0.00001   0.00019   0.00003   0.00019   0.00015
  4.25852  -0.00612   0.26045   0.34496   0.26044   0.00001   0.00019   0.00003   0.00019   0.00014
  4.30862  -0.00537   0.24672   0.33547   0.24671   0.00001   0.00019   0.00003   0.00019   0.00014
  4.35872  -0.00462   0.23303   0.31939   0.23302   0.00001   0.00019   0.00003   0.00019   0.00014
  4.40882  -0.00367   0.21529   0.30154   0.21528   0.00001   0.00018   0.00003   0.00018   0.00013
  4.45892  -0.00084   0.15132   0.28804   0.15132   0.00001   0.00009   0.00002   0.00009   0.00009
  4.50902  -0.00026   0.19392   0.31663   0.19392   0.00001   0.00010   0.00002   0.00010   0.00011
  4.55912   0.00092   0.29494   0.42477   0.29495   0.00002   0.00015   0.00002   0.00015   0.00018
  4.60922   0.00229   0.43024   0.51963   0.43024   0.00003   0.00020   0.00003   0.00020   0.00027
  4.65932   0.00450   0.93402   0.61691   0.93403   0.00003   0.00039   0.00004   0.00039   0.00064
  4.70942   0.00264   0.61500   0.36844   0.61501   0.00003   0.00027   0.00002   0.00027   0.00041
  4.75952   0.00210   0.41831   0.28426   0.41861   0.00002   0.00023   0.00001   0.00023   0.00030
  4.80962   0.00107   0.43241   0.30764   0.43550   0.00002   0.00026   0.00002   0.00026   0.00027
  4.85972  -0.00002   0.48336   0.34448   0.49077   0.00001   0.00029   0.00002   0.00029   0.00025
  4.90982  -0.00036   0.42608   0.34361   0.43826   0.00001   0.00024   0.00001   0.00024   0.00015
  4.95992  -0.00042   0.38474   0.33348   0.40094   0.00001   0.00021   0.00001   0.00022   0.00008
  5.01002  -0.00008   0.37304   0.32436   0.39235   0.00001   0.00021   0.00001   0.00022   0.00003
      5.01002004     -20.04008016   501       4.58027970       1.00000000; Z= 83; 6s 6p_y 6p_z 6p_x 5d_xy 5d_yz 5d_z^2 5d_xz 5d_x^2-y^2 
-20.04008   0.00000   0.00000   0.00000   0.00000   0.00000   0.00000   0.00000   0.00000   0.00000
-19.98998   0.00000   0.00000   0.00000   0.00000   0.00000   0.00000   0.00000   0.00000   0.00000
-19.93988   0.00000   0.00000   0.00000   0.00000   0.00000   0.00000   0.00000   0.00000   0.00000
-19.88978   0.00000   0.00000   0.00000   0.00000   0.00000   0.00000   0.00000   0.00000   0.00000
-19.83968   0.00000   0.00000   0.00000   0.00000   0.00000   0.00000   0.00000   0.00000   0.00000
-19.78958   0.00000   0.00000   0.00000   0.00000   0.00000   0.00000   0.00000   0.00000   0.00000
-19.73948   0.00000   0.00000   0.00000   0.00000   0.00000   0.00000   0.00000   0.00000   0.00000
-19.68938   0.00000   0.00000   0.00000   0.00000   0.00000   0.00000   0.00000   0.00000   0.00000
-19.63928   0.00000   0.00000   0.00000   0.00000   0.00000   0.00000   0.00000   0.00000   0.00000
-19.58918   0.00000   0.00000   0.00000   0.00000   0.00000   0.00000   0.00000   0.00000   0.00000
-19.53908   0.00000   0.00000   0.00000   0.00000   0.00000   0.00000   0.00000   0.00000   0.00000
-19.48898   0.00000   0.00000   0.00000   0.00000   0.00000   0.00000   0.00000   0.00000   0.00000
-19.43888   0.00000   0.00000   0.00000   0.00000   0.00000   0.00000   0.00000   0.00000   0.00000
-19.38878   0.00000   0.00000   0.00000   0.00000   0.00000   0.00000   0.00000   0.00000   0.00000
-19.33868   0.00000   0.00000   0.00000   0.00000   0.00000   0.00000   0.00000   0.00000   0.00000
-19.28858   0.00000   0.00000   0.00000   0.00000   0.00000   0.00000   0.00000   0.00000   0.00000
-19.23848   0.00000   0.00000   0.00000   0.00000   0.00000   0.00000   0.00000   0.00000   0.00000
-19.18838   0.00000   0.00000   0.00000   0.00000   0.00000   0.00000   0.00000   0.00000   0.00000
-19.13828   0.00000   0.00000   0.00000   0.00000   0.00000   0.00000   0.00000   0.00000   0.00000
-19.08818   0.00000   0.00000   0.00000   0.00000   0.00000   0.00000   0.00000   0.00000   0.00000
-19.03808   0.00000   0.00000   0.00000   0.00000   0.00000   0.00000   0.00000   0.00000   0.00000
-18.98798   0.00000   0.00000   0.00000   0.00000   0.00000   0.00000   0.00000   0.00000   0.00000
-18.93788   0.00000   0.00000   0.00000   0.00000   0.00000   0.00000   0.00000   0.00000   0.00000
-18.88778   0.00000   0.00000   0.00000   0.00000   0.00000   0.00000   0.00000   0.00000   0.00000
-18.83768   0.00000   0.00000   0.00000   0.00000   0.00000   0.00000   0.00000   0.00000   0.00000
-18.78758   0.00000   0.00000   0.00000   0.00000   0.00000   0.00000   0.00000   0.00000   0.00000
-18.73747   0.00000   0.00000   0.00000   0.00000   0.00000   0.00000   0.00000   0.00000   0.00000
-18.68737   0.00000   0.00000   0.00000   0.00000   0.00000   0.00000   0.00000   0.00000   0.00000
-18.63727   0.00000   0.00000   0.00000   0.00000   0.00000   0.00000   0.00000   0.00000   0.00000
-18.58717   0.00000   0.00000   0.00000   0.00000   0.00000   0.00000   0.00000   0.00000   0.00000
-18.53707   0.00000   0.00000   0.00000   0.00000   0.00000   0.00000   0.00000   0.00000   0.00000
-18.48697   0.00000   0.00000   0.00000   0.00000   0.00000   0.00000   0.00000   0.00000   0.00000
-18.43687   0.00383   0.00008   0.00104   0.00008   0.00000   0.00008   0.00002   0.00008   0.00001
-18.38677   0.02294   0.00051   0.00624   0.00051   0.00000   0.00053   0.00011   0.00053   0.00004
-18.33667   0.04340   0.00103   0.01180   0.00103   0.00000   0.00108   0.00020   0.00108   0.00008
-18.28657   0.06361   0.00161   0.01729   0.00161   0.00000   0.00169   0.00028   0.00169   0.00013
-18.23647   0.08354   0.00225   0.02269   0.00225   0.00000   0.00236   0.00037   0.00236   0.00019
-18.18637   0.10313   0.00311   0.02798   0.00311   0.00001   0.00326   0.00044   0.00326   0.00025
-18.13627   0.10617   0.00467   0.02872   0.00467   0.00001   0.00465   0.00041   0.00465   0.00038
-18.08617   0.09764   0.00508   0.02637   0.00508   0.00002   0.00487   0.00036   0.00487   0.00054
-18.03607   0.08921   0.00546   0.02404   0.00546   0.00002   0.00506   0.00032   0.00506   0.00071
-17.98597   0.08087   0.00581   0.02173   0.00581   0.00002   0.00522   0.00027   0.00522   0.00090
-17.93587   0.07277   0.00613   0.01950   0.00613   0.00002   0.00536   0.00023   0.00536   0.00110
-17.88577   0.07095   0.00673   0.01897   0.00673   0.00002   0.00573   0.00021   0.00573   0.00126
-17.83567   0.07235   0.00749   0.01932   0.00749   0.00002   0.00625   0.00021   0.00625   0.00141
-17.78557   0.07369   0.00827   0.01965   0.00827   0.00002   0.00678   0.00021   0.00678   0.00157
-17.73547   0.07496   0.00905   0.01997   0.00905   0.00003   0.00731   0.00020   0.00731   0.00172
-17.68537   0.07616   0.00985   0.02027   0.00985   0.00003   0.00785   0.00020   0.00785   0.00188
-17.63527   0.07730   0.01066   0.02054   0.01067   0.00003   0.00839   0.00020   0.00839   0.00204
-17.58517   0.07837   0.01149   0.02080   0.01149   0.00003   0.00894   0.00019   0.00894   0.00221
-17.53507   0.07938   0.01233   0.02105   0.01233   0.00004   0.00949   0.00019   0.00949   0.00238
-17.48497   0.09157   0.01517   0.02418   0.01518   0.00004   0.01158   0.00020   0.01158   0.00331
-17.43487   0.16977   0.03083   0.04442   0.03084   0.00007   0.02335   0.00031   0.02336   0.00873
-17.38477   0.15077   0.03005   0.03947   0.03006   0.00008   0.02236   0.00026   0.02236   0.00759
-17.33467   0.13215   0.02917   0.03461   0.02917   0.00008   0.02131   0.00021   0.02132   0.00649
-17.28457   0.08054   0.02400   0.02114   0.02401   0.00007   0.01663   0.00012   0.01664   0.00344
-17.23447   0.05383   0.02082   0.01415   0.02083   0.00006   0.01388   0.00007   0.01388   0.00193
-17.18437   0.04812   0.01998   0.01264   0.01999   0.00006   0.01320   0.00007   0.01320   0.00167
-17.13427   0.04258   0.01911   0.01118   0.01911   0.00005   0.01250   0.00006   0.01250   0.00143
-17.08417   0.03720   0.01819   0.00976   0.01820   0.00005   0.01178   0.00005   0.01178   0.00120
-17.03407   0.03199   0.01724   0.00839   0.01725   0.00005   0.01105   0.00004   0.01105   0.00098
-16.98397   0.02694   0.01625   0.00706   0.01626   0.00004   0.01030   0.00003   0.01030   0.00077
-16.93387   0.02207   0.01522   0.00577   0.01523   0.00004   0.00954   0.00002   0.00954   0.00056
-16.88377   0.02818   0.03310   0.00734   0.03311   0.00007   0.02001   0.00002   0.02002   0.00006
-16.83367   0.00000   0.00000   0.00000   0.00000   0.00000   0.00000   0.00000   0.00000   0.00000
-16.78357   0.00000   0.00000   0.00000   0.00000   0.00000   0.00000   0.00000   0.00000   0.00000
-16.73347   0.00000   0.00000   0.00000   0.00000   0.00000   0.00000   0.00000   0.00000   0.00000
-16.68337   0.00000   0.00000   0.00000   0.00000   0.00000   0.00000   0.00000   0.00000   0.00000
-16.63327   0.10552   0.16502   0.02344   0.16498   0.00004   0.08950   0.00004   0.08947   0.08310
-16.58317   0.07299   0.12041   0.01640   0.12038   0.00005   0.06417   0.00003   0.06416   0.07021
-16.53307   0.01958   0.02767   0.00433   0.02767   0.00001   0.01424   0.00001   0.01423   0.02689
-16.48297   0.01762   0.02522   0.00389   0.02522   0.00001   0.01287   0.00001   0.01287   0.02632
-16.43287   0.01573   0.02283   0.00346   0.02282   0.00001   0.01155   0.00001   0.01155   0.02567
-16.38277   0.01391   0.02048   0.00304   0.02047   0.00001   0.01026   0.00001   0.01026   0.02495
-16.33267   0.01216   0.01818   0.00265   0.01818   0.00000   0.00901   0.00000   0.00901   0.02415
-16.28257   0.01047   0.01593   0.00226   0.01593   0.00000   0.00779   0.00000   0.00779   0.02327
-16.23246   0.00886   0.01374   0.00189   0.01373   0.00000   0.00661   0.00000   0.00661   0.02232
-16.18236   0.00725   0.01190   0.00152   0.01190   0.00000   0.00559   0.00000   0.00559   0.02234
-16.13226   0.00524   0.01296   0.00102   0.01296   0.00000   0.00575   0.00000   0.00575   0.03279
-16.08216   0.00342   0.01332   0.00054   0.01332   0.00000   0.00561   0.00000   0.00561   0.04476
-16.03206   0.00169   0.00696   0.00023   0.00696   0.00000   0.00286   0.00000   0.00286   0.03482
-15.98196   0.00102   0.00425   0.00014   0.00425  -0.00000   0.00175   0.00000   0.00175   0.02347
-15.93186   0.00046   0.00193   0.00006   0.00193  -0.00000   0.00079   0.00000   0.00079   0.01183
-15.88176   0.00005   0.00022   0.00001   0.00022  -0.00000   0.00009   0.00000   0.00009   0.00146
-15.83166   0.00000   0.00000   0.00000   0.00000   0.00000   0.00000   0.00000   0.00000   0.00000
-15.78156   0.00000   0.00000   0.00000   0.00000   0.00000   0.00000   0.00000   0.00000   0.00000
-15.73146   0.00000   0.00000   0.00000   0.00000   0.00000   0.00000   0.00000   0.00000   0.00000
-15.68136   0.00000   0.00000   0.00000   0.00000   0.00000   0.00000   0.00000   0.00000   0.00000
-15.63126   0.00000   0.00000   0.00000   0.00000   0.00000   0.00000   0.00000   0.00000   0.00000
-15.58116   0.00000   0.00000   0.00000   0.00000   0.00000   0.00000   0.00000   0.00000   0.00000
-15.53106   0.00000   0.00000   0.00000   0.00000   0.00000   0.00000   0.00000   0.00000   0.00000
-15.48096   0.00000   0.00000   0.00000   0.00000   0.00000   0.00000   0.00000   0.00000   0.00000
-15.43086   0.00000   0.00000   0.00000   0.00000   0.00000   0.00000   0.00000   0.00000   0.00000
-15.38076   0.00000   0.00000   0.00000   0.00000   0.00000   0.00000   0.00000   0.00000   0.00000
-15.33066   0.00000   0.00000   0.00000   0.00000   0.00000   0.00000   0.00000   0.00000   0.00000
-15.28056   0.00000   0.00000   0.00000   0.00000   0.00000   0.00000   0.00000   0.00000   0.00000
-15.23046   0.00000   0.00000   0.00000   0.00000   0.00000   0.00000   0.00000   0.00000   0.00000
-15.18036   0.00000   0.00000   0.00000   0.00000   0.00000   0.00000   0.00000   0.00000   0.00000
-15.13026   0.00000   0.00000   0.00000   0.00000   0.00000   0.00000   0.00000   0.00000   0.00000
-15.08016   0.00000   0.00000   0.00000   0.00000   0.00000   0.00000   0.00000   0.00000   0.00000
-15.03006   0.00000   0.00000   0.00000   0.00000   0.00000   0.00000   0.00000   0.00000   0.00000
-14.97996   0.00000   0.00000   0.00000   0.00000   0.00000   0.00000   0.00000   0.00000   0.00000
-14.92986   0.00000   0.00000   0.00000   0.00000   0.00000   0.00000   0.00000   0.00000   0.00000
-14.87976   0.00000   0.00000   0.00000   0.00000   0.00000   0.00000   0.00000   0.00000   0.00000
-14.82966   0.00000   0.00000   0.00000   0.00000   0.00000   0.00000   0.00000   0.00000   0.00000
-14.77956   0.00000   0.00000   0.00000   0.00000   0.00000   0.00000   0.00000   0.00000   0.00000
-14.72946   0.00000   0.00000   0.00000   0.00000   0.00000   0.00000   0.00000   0.00000   0.00000
-14.67936   0.00000   0.00000   0.00000   0.00000   0.00000   0.00000   0.00000   0.00000   0.00000
-14.62926   0.00000   0.00000   0.00000   0.00000   0.00000   0.00000   0.00000   0.00000   0.00000
-14.57916   0.00000   0.00000   0.00000   0.00000   0.00000   0.00000   0.00000   0.00000   0.00000
-14.52906   0.00000   0.00000   0.00000   0.00000   0.00000   0.00000   0.00000   0.00000   0.00000
-14.47896   0.00000   0.00000   0.00000   0.00000   0.00000   0.00000   0.00000   0.00000   0.00000
-14.42886   0.00000   0.00000   0.00000   0.00000   0.00000   0.00000   0.00000   0.00000   0.00000
-14.37876   0.00000   0.00000   0.00000   0.00000   0.00000   0.00000   0.00000   0.00000   0.00000
-14.32866   0.00000   0.00000   0.00000   0.00000   0.00000   0.00000   0.00000   0.00000   0.00000
-14.27856   0.00000   0.00000   0.00000   0.00000   0.00000   0.00000   0.00000   0.00000   0.00000
-14.22846   0.00000   0.00000   0.00000   0.00000   0.00000   0.00000   0.00000   0.00000   0.00000
-14.17836   0.00000   0.00000   0.00000   0.00000   0.00000   0.00000   0.00000   0.00000   0.00000
-14.12826   0.00000   0.00000   0.00000   0.00000   0.00000   0.00000   0.00000   0.00000   0.00000
-14.07816   0.00000   0.00000   0.00000   0.00000   0.00000   0.00000   0.00000   0.00000   0.00000
-14.02806   0.00000   0.00000   0.00000   0.00000   0.00000   0.00000   0.00000   0.00000   0.00000
-13.97796   0.00000   0.00000   0.00000   0.00000   0.00000   0.00000   0.00000   0.00000   0.00000
-13.92786   0.00000   0.00000   0.00000   0.00000   0.00000   0.00000   0.00000   0.00000   0.00000
-13.87776   0.00000   0.00000   0.00000   0.00000   0.00000   0.00000   0.00000   0.00000   0.00000
-13.82766   0.00388   0.00017   0.00101   0.00017   0.00000   0.00000   0.00001   0.00000   0.00000
-13.77756   0.01734   0.00085   0.00464   0.00085   0.00001   0.00002   0.00006   0.00002   0.00000
-13.72745   0.03736   0.00206   0.01051   0.00206   0.00001   0.00006   0.00013   0.00006   0.00000
-13.67735   0.05717   0.00445   0.01786   0.00445   0.00004   0.00014   0.00019   0.00014   0.00000
-13.62725   0.06579   0.00702   0.02329   0.00702   0.00008   0.00024   0.00021   0.00024   0.00001
-13.57715   0.06256   0.00954   0.02460   0.00954   0.00013   0.00036   0.00018   0.00036   0.00001
-13.52705   0.05399   0.01165   0.02180   0.01165   0.00020   0.00046   0.00015   0.00046   0.00002
-13.47695   0.04839   0.01372   0.01943   0.01372   0.00030   0.00054   0.00014   0.00054   0.00002
-13.42685   0.04817   0.01629   0.01920   0.01629   0.00043   0.00064   0.00014   0.00064   0.00003
-13.37675   0.06628   0.02447   0.02255   0.02447   0.00065   0.00093   0.00026   0.00093   0.00005
-13.32665   0.09996   0.04551   0.03184   0.04551   0.00117   0.00176   0.00048   0.00176   0.00011
-13.27655   0.09853   0.04173   0.02909   0.04173   0.00185   0.00166   0.00061   0.00166   0.00008
-13.22645   0.10910   0.05077   0.02916   0.05077   0.00255   0.00202   0.00081   0.00202   0.00009
-13.17635   0.08369   0.09783   0.02101   0.09783   0.00447   0.00423   0.00083   0.00423   0.00023
-13.12625   0.01698   0.04302   0.00542   0.04302   0.00633   0.00195   0.00028   0.00195   0.00007
-13.07615   0.00083   0.00583   0.00069   0.00583   0.00218   0.00028   0.00005   0.00028   0.00000
-13.02605   0.00000   0.00000   0.00000   0.00000   0.00000   0.00000   0.00000   0.00000   0.00000
-12.97595   0.00000   0.00000   0.00000   0.00000   0.00000   0.00000   0.00000   0.00000   0.00000
-12.92585   0.00000   0.00000   0.00000   0.00000   0.00000   0.00000   0.00000   0.00000   0.00000
-12.87575   0.00000   0.00000   0.00000   0.00000   0.00000   0.00000   0.00000   0.00000   0.00000
-12.82565   0.00000   0.00000   0.00000   0.00000   0.00000   0.00000   0.00000   0.00000   0.00000
-12.77555   0.00000   0.00000   0.00000   0.00000   0.00000   0.00000   0.00000   0.00000   0.00000
-12.72545   0.00000   0.00000   0.00000   0.00000   0.00000   0.00000   0.00000   0.00000   0.00000
-12.67535   0.00000   0.00000   0.00000   0.00000   0.00000   0.00000   0.00000   0.00000   0.00000
-12.62525   0.00000   0.00000   0.00000   0.00000   0.00000   0.00000   0.00000   0.00000   0.00000
-12.57515   0.00000   0.00000   0.00000   0.00000   0.00000   0.00000   0.00000   0.00000   0.00000
-12.52505   0.00000   0.00000   0.00000   0.00000   0.00000   0.00000   0.00000   0.00000   0.00000
-12.47495   0.00000   0.00000   0.00000   0.00000   0.00000   0.00000   0.00000   0.00000   0.00000
-12.42485   0.00000   0.00000   0.00000   0.00000   0.00000   0.00000   0.00000   0.00000   0.00000
-12.37475   0.00000   0.00000   0.00000   0.00000   0.00000   0.00000   0.00000   0.00000   0.00000
-12.32465   0.00000   0.00000   0.00000   0.00000   0.00000   0.00000   0.00000   0.00000   0.00000
-12.27455   0.00000   0.00000   0.00000   0.00000   0.00000   0.00000   0.00000   0.00000   0.00000
-12.22445   0.00000   0.00000   0.00000   0.00000   0.00000   0.00000   0.00000   0.00000   0.00000
-12.17435   0.00000   0.00000   0.00000   0.00000   0.00000   0.00000   0.00000   0.00000   0.00000
-12.12425   0.00000   0.00000   0.00000   0.00000   0.00000   0.00000   0.00000   0.00000   0.00000
-12.07415   0.00000   0.00000   0.00000   0.00000   0.00000   0.00000   0.00000   0.00000   0.00000
-12.02405   0.00000   0.00000   0.00000   0.00000   0.00000   0.00000   0.00000   0.00000   0.00000
-11.97395   0.00000   0.00000   0.00000   0.00000   0.00000   0.00000   0.00000   0.00000   0.00000
-11.92385   0.00000   0.00000   0.00000   0.00000   0.00000   0.00000   0.00000   0.00000   0.00000
-11.87375   0.00000   0.00000   0.00000   0.00000   0.00000   0.00000   0.00000   0.00000   0.00000
-11.82365   0.00000   0.00000   0.00000   0.00000   0.00000   0.00000   0.00000   0.00000   0.00000
-11.77355   0.00000   0.00000   0.00000   0.00000   0.00000   0.00000   0.00000   0.00000   0.00000
-11.72345   0.00000   0.00000   0.00000   0.00000   0.00000   0.00000   0.00000   0.00000   0.00000
-11.67335   0.00000   0.00000   0.00000   0.00000   0.00000   0.00000   0.00000   0.00000   0.00000
-11.62325   0.00000   0.00000   0.00000   0.00000   0.00000   0.00000   0.00000   0.00000   0.00000
-11.57315   0.00000   0.00000   0.00000   0.00000   0.00000   0.00000   0.00000   0.00000   0.00000
-11.52305   0.00000   0.00000   0.00000   0.00000   0.00000   0.00000   0.00000   0.00000   0.00000
-11.47295   0.00000   0.00000   0.00000   0.00000   0.00000   0.00000   0.00000   0.00000   0.00000
-11.42285   0.00000   0.00000   0.00000   0.00000   0.00000   0.00000   0.00000   0.00000   0.00000
-11.37275   0.00000   0.00000   0.00000   0.00000   0.00000   0.00000   0.00000   0.00000   0.00000
-11.32265   0.00000   0.00000   0.00000   0.00000   0.00000   0.00000   0.00000   0.00000   0.00000
-11.27255   0.00000   0.00000   0.00000   0.00000   0.00000   0.00000   0.00000   0.00000   0.00000
-11.22244   0.00000   0.00000   0.00000   0.00000   0.00000   0.00000   0.00000   0.00000   0.00000
-11.17234   0.00000   0.00000   0.00000   0.00000   0.00000   0.00000   0.00000   0.00000   0.00000
-11.12224   0.00000   0.00000   0.00000   0.00000   0.00000   0.00000   0.00000   0.00000   0.00000
-11.07214   0.00000   0.00000   0.00000   0.00000   0.00000   0.00000   0.00000   0.00000   0.00000
-11.02204   0.00000   0.00000   0.00000   0.00000   0.00000   0.00000   0.00000   0.00000   0.00000
-10.97194   0.00000   0.00000   0.00000   0.00000   0.00000   0.00000   0.00000   0.00000   0.00000
-10.92184   0.00000   0.00000   0.00000   0.00000   0.00000   0.00000   0.00000   0.00000   0.00000
-10.87174   0.00000   0.00000   0.00000   0.00000   0.00000   0.00000   0.00000   0.00000   0.00000
-10.82164   0.00000   0.00000   0.00000   0.00000   0.00000   0.00000   0.00000   0.00000   0.00000
-10.77154   0.00000   0.00000   0.00000   0.00000   0.00000   0.00000   0.00000   0.00000   0.00000
-10.72144   0.00000   0.00000   0.00000   0.00000   0.00000   0.00000   0.00000   0.00000   0.00000
-10.67134   0.00000   0.00000   0.00000   0.00000   0.00000   0.00000   0.00000   0.00000   0.00000
-10.62124   0.00000   0.00000   0.00000   0.00000   0.00000   0.00000   0.00000   0.00000   0.00000
-10.57114   0.00000   0.00000   0.00000   0.00000   0.00000   0.00000   0.00000   0.00000   0.00000
-10.52104   0.00000   0.00000   0.00000   0.00000   0.00000   0.00000   0.00000   0.00000   0.00000
-10.47094   0.00000   0.00000   0.00000   0.00000   0.00000   0.00000   0.00000   0.00000   0.00000
-10.42084   0.00000   0.00000   0.00000   0.00000   0.00000   0.00000   0.00000   0.00000   0.00000
-10.37074   0.00000   0.00000   0.00000   0.00000   0.00000   0.00000   0.00000   0.00000   0.00000
-10.32064   0.00000   0.00000   0.00000   0.00000   0.00000   0.00000   0.00000   0.00000   0.00000
-10.27054   0.00000   0.00000   0.00000   0.00000   0.00000   0.00000   0.00000   0.00000   0.00000
-10.22044   0.00000   0.00000   0.00000   0.00000   0.00000   0.00000   0.00000   0.00000   0.00000
-10.17034   0.00000   0.00000   0.00000   0.00000   0.00000   0.00000   0.00000   0.00000   0.00000
-10.12024   0.00000   0.00000   0.00000   0.00000   0.00000   0.00000   0.00000   0.00000   0.00000
-10.07014   0.00000   0.00000   0.00000   0.00000   0.00000   0.00000   0.00000   0.00000   0.00000
-10.02004   0.00000   0.00000   0.00000   0.00000   0.00000   0.00000   0.00000   0.00000   0.00000
 -9.96994   0.00000   0.00000   0.00000   0.00000   0.00000   0.00000   0.00000   0.00000   0.00000
 -9.91984   0.00000   0.00000   0.00000   0.00000   0.00000   0.00000   0.00000   0.00000   0.00000
 -9.86974   0.00000   0.00000   0.00000   0.00000   0.00000   0.00000   0.00000   0.00000   0.00000
 -9.81964   0.00000   0.00000   0.00000   0.00000   0.00000   0.00000   0.00000   0.00000   0.00000
 -9.76954   1.24860  -0.00029   0.01261  -0.00029   0.00095   0.00016   0.00012   0.00016   0.00001
 -9.71944   0.91448  -0.00050   0.00479  -0.00050   0.00055   0.00015   0.00006   0.00015   0.00002
 -9.66934   1.13595  -0.00073   0.00376  -0.00073   0.00062   0.00020   0.00007   0.00020   0.00003
 -9.61924   1.51398  -0.00109   0.00113  -0.00109   0.00071   0.00029   0.00009   0.00029   0.00004
 -9.56914   2.51287  -0.00164  -0.01117  -0.00164   0.00074   0.00044   0.00021   0.00044   0.00009
 -9.51904   2.52278  -0.00103  -0.01821  -0.00103   0.00046   0.00033   0.00032   0.00033   0.00011
 -9.46894   3.48497  -0.00295  -0.01439  -0.00295   0.00086   0.00057   0.00060   0.00057   0.00012
 -9.41884   2.28167  -0.00107  -0.01803  -0.00107   0.00032   0.00026   0.00048   0.00026   0.00009
 -9.36874   1.10020  -0.00081  -0.00941  -0.00081   0.00017   0.00015   0.00034   0.00015   0.00003
 -9.31864   0.59907  -0.00089  -0.00399  -0.00089   0.00013   0.00013   0.00022   0.00013   0.00001
 -9.26854   0.41046  -0.00104  -0.00056  -0.00104   0.00013   0.00013   0.00011   0.00013   0.00000
 -9.21844   0.30900  -0.00117   0.00140  -0.00117   0.00012   0.00014   0.00005   0.00014   0.00000
 -9.16834   0.30690  -0.00126   0.00166  -0.00126   0.00012   0.00014   0.00004   0.00014   0.00000
 -9.11824   0.32236  -0.00136   0.00161  -0.00136   0.00012   0.00015   0.00004   0.00015   0.00000
 -9.06814   0.33781  -0.00146   0.00156  -0.00146   0.00012   0.00016   0.00004   0.00016   0.00000
 -9.01804   0.35325  -0.00155   0.00150  -0.00155   0.00012   0.00017   0.00004   0.00017   0.00000
 -8.96794   0.36869  -0.00165   0.00143  -0.00165   0.00012   0.00018   0.00004   0.00018   0.00000
 -8.91784   0.40379  -0.00183   0.00135  -0.00183   0.00012   0.00020   0.00004   0.00020   0.00000
 -8.86774   0.60881  -0.00254   0.00125  -0.00254   0.00011   0.00029   0.00003   0.00029  -0.00000
 -8.81764   0.71247  -0.00272   0.00146  -0.00272   0.00010   0.00032   0.00003   0.00032  -0.00000
 -8.76754   0.75375  -0.00265   0.00182  -0.00265   0.00009   0.00031   0.00003   0.00031  -0.00000
 -8.71743   0.79498  -0.00257   0.00220  -0.00257   0.00008   0.00031   0.00003   0.00031  -0.00000
 -8.66733   0.74907  -0.00232   0.00225  -0.00232   0.00007   0.00028   0.00002   0.00028  -0.00000
 -8.61723   0.43214  -0.00171   0.00140  -0.00171   0.00004   0.00017   0.00002   0.00017  -0.00000
 -8.56713   0.33296  -0.00155   0.00118  -0.00155   0.00004   0.00014   0.00002   0.00014  -0.00000
 -8.51703   0.32474  -0.00152   0.00119  -0.00152   0.00004   0.00013   0.00001   0.00013  -0.00000
 -8.46693   0.31651  -0.00149   0.00120  -0.00149   0.00003   0.00013   0.00001   0.00013  -0.00000
 -8.41683   0.30829  -0.00147   0.00121  -0.00147   0.00003   0.00012   0.00001   0.00012  -0.00000
 -8.36673   0.30008  -0.00144   0.00121  -0.00144   0.00003   0.00012   0.00001   0.00012  -0.00000
 -8.31663   0.29188  -0.00141   0.00122  -0.00141   0.00003   0.00011   0.00001   0.00011  -0.00000
 -8.26653   0.28368  -0.00137   0.00123  -0.00137   0.00002   0.00011   0.00001   0.00011  -0.00000
 -8.21643   0.27548  -0.00134   0.00124  -0.00134   0.00002   0.00011   0.00001   0.00011  -0.00000
 -8.16633   0.26729  -0.00131   0.00125  -0.00131   0.00002   0.00010   0.00001   0.00010  -0.00000
 -8.11623   0.25911  -0.00127   0.00126  -0.00127   0.00002   0.00010   0.00001   0.00010  -0.00000
 -8.06613   0.25093  -0.00124   0.00126  -0.00124   0.00002   0.00009   0.00001   0.00009  -0.00000
 -8.01603   0.24276  -0.00120   0.00127  -0.00120   0.00001   0.00009   0.00001   0.00009  -0.00000
 -7.96593   0.23495  -0.00116   0.00128  -0.00116   0.00001   0.00008   0.00001   0.00008  -0.00000
 -7.91583   0.23082  -0.00115   0.00134  -0.00115   0.00001   0.00008   0.00001   0.00008  -0.00000
 -7.86573   0.23087  -0.00115   0.00143  -0.00115   0.00001   0.00008   0.00001   0.00008  -0.00000
 -7.81563   0.23480  -0.00118   0.00156  -0.00118   0.00001   0.00008   0.00001   0.00008  -0.00000
 -7.76553   0.23931  -0.00120   0.00169  -0.00120   0.00001   0.00007   0.00001   0.00007  -0.00000
 -7.71543   0.24380  -0.00121   0.00183  -0.00121   0.00001   0.00007   0.00001   0.00007  -0.00000
 -7.66533   0.24826  -0.00122   0.00197  -0.00122   0.00001   0.00007   0.00001   0.00007  -0.00000
 -7.61523   0.25270  -0.00122   0.00212  -0.00122   0.00000   0.00007   0.00001   0.00007  -0.00000
 -7.56513   0.25285  -0.00118   0.00225  -0.00118   0.00000   0.00006   0.00001   0.00006  -0.00000
 -7.51503   0.23834  -0.00103   0.00226  -0.00103   0.00000   0.00005   0.00001   0.00005  -0.00000
 -7.46493   0.22151  -0.00088   0.00218  -0.00088   0.00000   0.00005   0.00001   0.00005  -0.00000
 -7.41483   0.19557  -0.00068   0.00203  -0.00068   0.00000   0.00004   0.00000   0.00004  -0.00000
 -7.36473   0.17393  -0.00057   0.00183  -0.00057   0.00000   0.00003   0.00000   0.00003  -0.00000
 -7.31463   0.15450  -0.00050   0.00163  -0.00050   0.00000   0.00003   0.00000   0.00003  -0.00000
 -7.26453   0.13510  -0.00042   0.00143  -0.00042   0.00000   0.00002   0.00000   0.00002  -0.00000
 -7.21443   0.11571  -0.00035   0.00123  -0.00035   0.00000   0.00002   0.00000   0.00002  -0.00000
 -7.16433   0.09636  -0.00029   0.00102  -0.00029   0.00000   0.00001   0.00000   0.00001  -0.00000
 -7.11423   0.07703  -0.00022   0.00081  -0.00022   0.00000   0.00001   0.00000   0.00001  -0.00000
 -7.06413   0.05772  -0.00016   0.00060  -0.00016   0.00000   0.00001   0.00000   0.00001  -0.00000
 -7.01403   0.03844  -0.00011   0.00038  -0.00011   0.00000   0.00001   0.00000   0.00001  -0.00000
 -6.96393   0.02148  -0.00006   0.00020  -0.00006   0.00000   0.00000   0.00000   0.00000  -0.00000
 -6.91383   0.00981  -0.00003   0.00009  -0.00003   0.00000   0.00000   0.00000   0.00000  -0.00000
 -6.86373   0.00228  -0.00001   0.00002  -0.00001   0.00000   0.00000   0.00000   0.00000  -0.00000
 -6.81363   0.00003  -0.00000   0.00000  -0.00000   0.00000   0.00000   0.00000   0.00000  -0.00000
 -6.76353   0.00000   0.00000   0.00000   0.00000   0.00000   0.00000   0.00000   0.00000   0.00000
 -6.71343   0.00000   0.00000   0.00000   0.00000   0.00000   0.00000   0.00000   0.00000   0.00000
 -6.66333   0.00000   0.00000   0.00000   0.00000   0.00000   0.00000   0.00000   0.00000   0.00000
 -6.61323   0.00000   0.00000   0.00000   0.00000   0.00000   0.00000   0.00000   0.00000   0.00000
 -6.56313   0.00000   0.00000   0.00000   0.00000   0.00000   0.00000   0.00000   0.00000   0.00000
 -6.51303   0.00000   0.00000   0.00000   0.00000   0.00000   0.00000   0.00000   0.00000   0.00000
 -6.46293   0.00000   0.00000   0.00000   0.00000   0.00000   0.00000   0.00000   0.00000   0.00000
 -6.41283   0.00000   0.00000   0.00000   0.00000   0.00000   0.00000   0.00000   0.00000   0.00000
 -6.36273   0.00000   0.00000   0.00000   0.00000   0.00000   0.00000   0.00000   0.00000   0.00000
 -6.31263   0.00000   0.00000   0.00000   0.00000   0.00000   0.00000   0.00000   0.00000   0.00000
 -6.26253   0.00000   0.00000   0.00000   0.00000   0.00000   0.00000   0.00000   0.00000   0.00000
 -6.21242   0.00000   0.00000   0.00000   0.00000   0.00000   0.00000   0.00000   0.00000   0.00000
 -6.16232   0.00000   0.00000   0.00000   0.00000   0.00000   0.00000   0.00000   0.00000   0.00000
 -6.11222   0.00000   0.00000   0.00000   0.00000   0.00000   0.00000   0.00000   0.00000   0.00000
 -6.06212   0.00000   0.00000   0.00000   0.00000   0.00000   0.00000   0.00000   0.00000   0.00000
 -6.01202   0.00000   0.00000   0.00000   0.00000   0.00000   0.00000   0.00000   0.00000   0.00000
 -5.96192   0.00000   0.00000   0.00000   0.00000   0.00000   0.00000   0.00000   0.00000   0.00000
 -5.91182   0.00000   0.00000   0.00000   0.00000   0.00000   0.00000   0.00000   0.00000   0.00000
 -5.86172   0.00000   0.00000   0.00000   0.00000   0.00000   0.00000   0.00000   0.00000   0.00000
 -5.81162   0.00000   0.00000   0.00000   0.00000   0.00000   0.00000   0.00000   0.00000   0.00000
 -5.76152   0.00000   0.00000   0.00000   0.00000   0.00000   0.00000   0.00000   0.00000   0.00000
 -5.71142   0.00000   0.00000   0.00000   0.00000   0.00000   0.00000   0.00000   0.00000   0.00000
 -5.66132   0.00000   0.00000   0.00000   0.00000   0.00000   0.00000   0.00000   0.00000   0.00000
 -5.61122   0.00000   0.00000   0.00000   0.00000   0.00000   0.00000   0.00000   0.00000   0.00000
 -5.56112   0.00000   0.00000   0.00000   0.00000   0.00000   0.00000   0.00000   0.00000   0.00000
 -5.51102   0.00000   0.00000   0.00000   0.00000   0.00000   0.00000   0.00000   0.00000   0.00000
 -5.46092   0.00000   0.00000   0.00000   0.00000   0.00000   0.00000   0.00000   0.00000   0.00000
 -5.41082   0.00000   0.00000   0.00000   0.00000   0.00000   0.00000   0.00000   0.00000   0.00000
 -5.36072   0.00000   0.00000   0.00000   0.00000   0.00000   0.00000   0.00000   0.00000   0.00000
 -5.31062   0.00000   0.00000   0.00000   0.00000   0.00000   0.00000   0.00000   0.00000   0.00000
 -5.26052   0.00000   0.00000   0.00000   0.00000   0.00000   0.00000   0.00000   0.00000   0.00000
 -5.21042   0.00000   0.00000   0.00000   0.00000   0.00000   0.00000   0.00000   0.00000   0.00000
 -5.16032   0.00000   0.00000   0.00000   0.00000   0.00000   0.00000   0.00000   0.00000   0.00000
 -5.11022   0.00000   0.00000   0.00000   0.00000   0.00000   0.00000   0.00000   0.00000   0.00000
 -5.06012   0.00000   0.00000   0.00000   0.00000   0.00000   0.00000   0.00000   0.00000   0.00000
 -5.01002   0.00000   0.00000   0.00000   0.00000   0.00000   0.00000   0.00000   0.00000   0.00000
 -4.95992   0.00000   0.00000   0.00000   0.00000   0.00000   0.00000   0.00000   0.00000   0.00000
 -4.90982   0.00000   0.00000   0.00000   0.00000   0.00000   0.00000   0.00000   0.00000   0.00000
 -4.85972   0.00000   0.00000   0.00000   0.00000   0.00000   0.00000   0.00000   0.00000   0.00000
 -4.80962   0.00000   0.00000   0.00000   0.00000   0.00000   0.00000   0.00000   0.00000   0.00000
 -4.75952   0.00013   0.00260   0.00202   0.00260   0.00001   0.00002   0.00002   0.00002   0.00000
 -4.70942   0.03429   0.42119   0.30753   0.42029   0.00147   0.00231   0.00194   0.00230   0.00071
 -4.65932   0.02455   0.37959   0.22720   0.37546   0.00112   0.00237   0.00196   0.00230   0.00083
 -4.60922   0.01153   0.25442   0.14621   0.24620   0.00073   0.00226   0.00156   0.00211   0.00086
 -4.55912   0.00378   0.17457   0.08528   0.16160   0.00039   0.00207   0.00114   0.00183   0.00079
 -4.50902   0.00269   0.18079   0.07771   0.16245   0.00032   0.00227   0.00113   0.00195   0.00087
 -4.45892   0.00217   0.22488   0.07684   0.19963   0.00027   0.00295   0.00126   0.00249   0.00108
 -4.40882   0.00174   0.15379   0.06590   0.15087   0.00022   0.00185   0.00090   0.00180   0.00098
 -4.35872   0.00171   0.16418   0.05629   0.17395   0.00021   0.00112   0.00062   0.00129   0.00098
 -4.30862   0.00182   0.17564   0.05764   0.18770   0.00023   0.00120   0.00056   0.00141   0.00103
 -4.25852   0.00230   0.22478   0.06529   0.23834   0.00028   0.00130   0.00052   0.00154   0.00121
 -4.20842   0.00394   0.27730   0.09553   0.28487   0.00040   0.00119   0.00051   0.00133   0.00164
 -4.15832   0.00614   0.28351   0.13846   0.28908   0.00060   0.00133   0.00052   0.00143   0.00205
 -4.10822   0.00430   0.21075   0.10206   0.21568   0.00046   0.00129   0.00038   0.00138   0.00162
 -4.05812   0.00338   0.17270   0.08242   0.17701   0.00041   0.00124   0.00025   0.00132   0.00135
 -4.00802   0.00272   0.14582   0.06910   0.14953   0.00037   0.00114   0.00014   0.00121   0.00113
 -3.95792   0.00243   0.13570   0.06503   0.13884   0.00034   0.00107   0.00012   0.00113   0.00109
 -3.90782   0.00217   0.12667   0.06176   0.12925   0.00032   0.00101   0.00012   0.00106   0.00106
 -3.85772   0.00191   0.11760   0.05865   0.11966   0.00030   0.00095   0.00011   0.00098   0.00104
 -3.80762   0.00166   0.10849   0.05570   0.11005   0.00028   0.00088   0.00010   0.00091   0.00102
 -3.75752   0.00142   0.09936   0.05290   0.10044   0.00026   0.00082   0.00010   0.00084   0.00099
 -3.70741   0.00119   0.09020   0.05027   0.09083   0.00024   0.00076   0.00009   0.00077   0.00097
 -3.65731   0.01388   0.08329   0.08280   0.08352   0.00043   0.00068   0.00009   0.00068   0.00091
 -3.60721   0.01709   0.06401   0.07824   0.06404   0.00044   0.00054   0.00007   0.00054   0.00062
 -3.55711   0.01420   0.04119   0.05526   0.04119   0.00034   0.00035   0.00004   0.00035   0.00032
 -3.50701   0.01671   0.03073   0.05252   0.03074   0.00034   0.00023   0.00002   0.00023   0.00013
 -3.45691   0.02007   0.04274   0.06282   0.04275   0.00041   0.00030   0.00003   0.00030   0.00020
 -3.40681   0.02373   0.05898   0.07788   0.05899   0.00049   0.00037   0.00004   0.00037   0.00037
 -3.35671   0.04287   0.08525   0.13831   0.08526   0.00073   0.00045   0.00007   0.00045   0.00060
 -3.30661   0.03366   0.11608   0.13511   0.11611   0.00067   0.00049   0.00012   0.00049   0.00128
 -3.25651   0.03634   0.14796   0.15463   0.14799   0.00072   0.00050   0.00014   0.00050   0.00174
 -3.20641   0.03765   0.17795   0.16811   0.17799   0.00075   0.00049   0.00015   0.00049   0.00211
 -3.15631   0.03657   0.19855   0.17264   0.19860   0.00074   0.00046   0.00014   0.00046   0.00226
 -3.10621   0.02047   0.16702   0.10247   0.16706   0.00049   0.00036   0.00010   0.00036   0.00199
 -3.05611   0.00657   0.10997   0.05357   0.10998   0.00020   0.00023   0.00007   0.00023   0.00152
 -3.00601   0.02198   0.20805   0.18636   0.20800   0.00050   0.00041   0.00015   0.00041   0.00180
 -2.95591   0.03307   0.25664   0.31517   0.25657   0.00080   0.00054   0.00022   0.00054   0.00203
 -2.90581   0.02402   0.19571   0.29546   0.19567   0.00062   0.00049   0.00022   0.00049   0.00171
 -2.85571   0.01626   0.13442   0.20915   0.13441   0.00040   0.00034   0.00018   0.00034   0.00142
 -2.80561   0.01318   0.10923   0.16967   0.10926   0.00030   0.00028   0.00016   0.00028   0.00128
 -2.75551   0.01145   0.09524   0.15537   0.09530   0.00025   0.00027   0.00016   0.00027   0.00120
 -2.70541   0.01032   0.08036   0.14016   0.08047   0.00021   0.00027   0.00015   0.00027   0.00104
 -2.65531   0.00958   0.06850   0.12797   0.06865   0.00019   0.00029   0.00014   0.00029   0.00091
 -2.60521   0.00905   0.05988   0.11819   0.06008   0.00018   0.00033   0.00014   0.00033   0.00084
 -2.55511   0.00938   0.06421   0.12058   0.06446   0.00026   0.00055   0.00014   0.00055   0.00082
 -2.50501   0.06538   0.10301   0.22995   0.10330   0.00067   0.00085   0.00018   0.00085   0.00090
 -2.45491   0.05522   0.08084   0.23079   0.08117   0.00060   0.00094   0.00020   0.00094   0.00095
 -2.40481   0.07136   0.09151   0.28244   0.09190   0.00070   0.00110   0.00022   0.00110   0.00105
 -2.35471   0.14186   0.11956   0.47500   0.11997   0.00103   0.00143   0.00030   0.00143   0.00138
 -2.30461   0.09136   0.12028   0.42006   0.12062   0.00091   0.00169   0.00033   0.00169   0.00164
 -2.25451   0.03861   0.08663   0.25664   0.08684   0.00051   0.00132   0.00026   0.00132   0.00109
 -2.20441   0.02729   0.07400   0.20067   0.07405   0.00037   0.00112   0.00022   0.00112   0.00086
 -2.15431   0.02382   0.06994   0.17099   0.07018   0.00029   0.00098   0.00019   0.00098   0.00075
 -2.10421   0.02154   0.06849   0.14963   0.06818   0.00024   0.00090   0.00016   0.00090   0.00072
 -2.05411   0.02138   0.07145   0.13269   0.06965   0.00022   0.00086   0.00013   0.00086   0.00066
 -2.00401   0.03780   0.07942   0.12812   0.07676   0.00049   0.00106   0.00014   0.00105   0.00064
 -1.95391   0.02435   0.07263   0.09746   0.06889   0.00034   0.00095   0.00010   0.00094   0.00063
 -1.90381   0.02193   0.06758   0.06691   0.06395   0.00036   0.00093   0.00007   0.00092   0.00051
 -1.85371   0.02103   0.07636   0.05372   0.07327   0.00039   0.00107   0.00007   0.00106   0.00066
 -1.80361   0.02018   0.11080   0.04357   0.10934   0.00044   0.00152   0.00009   0.00151   0.00132
 -1.75351   0.03059   0.11388   0.03959   0.11704   0.00055   0.00169   0.00008   0.00170   0.00163
 -1.70341   0.02134   0.08018   0.02536   0.08513   0.00042   0.00146   0.00005   0.00147   0.00164
 -1.65331   0.01589   0.04532   0.01605   0.04944   0.00026   0.00093   0.00003   0.00095   0.00120
 -1.60321   0.01628   0.03106   0.01706   0.03219   0.00022   0.00074   0.00003   0.00074   0.00077
 -1.55311   0.01920   0.02899   0.02291   0.02897   0.00024   0.00069   0.00005   0.00069   0.00070
 -1.50301   0.02231   0.03110   0.03140   0.03101   0.00028   0.00080   0.00007   0.00080   0.00082
 -1.45291   0.03032   0.04684   0.05672   0.04634   0.00054   0.00152   0.00014   0.00143   0.00141
 -1.40281   0.03317   0.05907   0.07524   0.05752   0.00084   0.00232   0.00019   0.00207   0.00179
 -1.35271   0.02748   0.04896   0.06118   0.04793   0.00079   0.00216   0.00017   0.00195   0.00182
 -1.30261   0.02509   0.04545   0.05583   0.04559   0.00080   0.00188   0.00017   0.00187   0.00199
 -1.25251   0.02348   0.04451   0.05311   0.04539   0.00086   0.00176   0.00016   0.00191   0.00219
 -1.20240   0.01967   0.04079   0.04957   0.04201   0.00088   0.00184   0.00016   0.00207   0.00275
 -1.15230   0.01399   0.03301   0.04041   0.03379   0.00073   0.00162   0.00013   0.00177   0.00283
 -1.10220   0.00909   0.02314   0.02425   0.02344   0.00057   0.00125   0.00011   0.00130   0.00230
 -1.05210   0.01716   0.02129   0.02931   0.02159   0.00054   0.00090   0.00008   0.00092   0.00159
 -1.00200   0.08702   0.05559   0.05445   0.05636   0.00141   0.00250   0.00019   0.00256   0.00589
 -0.95190   0.11513   0.05384   0.06562   0.05451   0.00101   0.00271   0.00026   0.00277   0.00837
 -0.90180   0.10432   0.03116   0.07604   0.03126   0.00052   0.00167   0.00023   0.00168   0.00455
 -0.85170   0.07498   0.02620   0.04874   0.02524   0.00033   0.00176   0.00017   0.00168   0.00220
 -0.80160   0.06633   0.01544   0.03516   0.01504   0.00019   0.00113   0.00014   0.00110   0.00136
 -0.75150   0.08236   0.01470   0.03780   0.01440   0.00016   0.00113   0.00015   0.00110   0.00327
 -0.70140   0.11107   0.01433   0.04428   0.01416   0.00014   0.00087   0.00016   0.00086   0.00217
 -0.65130   0.13574   0.01232   0.05034   0.01224   0.00013   0.00070   0.00021   0.00069   0.00153
 -0.60120   0.16915   0.01226   0.06145   0.01225   0.00014   0.00059   0.00028   0.00058   0.00126
 -0.55110   0.32114   0.02039   0.09774   0.02039   0.00021   0.00083   0.00051   0.00083   0.00113
 -0.50100   0.35317   0.02015   0.09014   0.02015   0.00023   0.00065   0.00067   0.00065   0.00092
 -0.45090   0.33769   0.01679   0.07739   0.01679   0.00023   0.00052   0.00079   0.00052   0.00072
 -0.40080   0.37510   0.01481   0.07773   0.01481   0.00027   0.00045   0.00107   0.00045   0.00050
 -0.35070   0.34489   0.01157   0.06465   0.01157   0.00023   0.00033   0.00100   0.00033   0.00020
 -0.30060   0.23449   0.00669   0.04283   0.00669   0.00012   0.00020   0.00062   0.00020   0.00011
 -0.25050   0.15121   0.00369   0.02829   0.00369   0.00007   0.00012   0.00030   0.00012   0.00005
 -0.20040   0.11208   0.00224   0.02006   0.00224   0.00005   0.00008   0.00022   0.00008   0.00003
 -0.15030   0.08004   0.00135   0.01365   0.00136   0.00003   0.00005   0.00014   0.00005   0.00002
 -0.10020   0.05324   0.00078   0.00879   0.00078   0.00002   0.00003   0.00008   0.00003   0.00001
 -0.05010   0.02404   0.00028   0.00383   0.00028   0.00000   0.00001   0.00003   0.00001   0.00000
 -0.00000   0.00000   0.00000   0.00000   0.00000   0.00000   0.00000   0.00000   0.00000   0.00000
  0.05010   0.00000   0.00000   0.00000   0.00000   0.00000   0.00000   0.00000   0.00000   0.00000
  0.10020   0.00000   0.00000   0.00000   0.00000   0.00000   0.00000   0.00000   0.00000   0.00000
  0.15030   0.00000   0.00000   0.00000   0.00000   0.00000   0.00000   0.00000   0.00000   0.00000
  0.20040   0.00000   0.00000   0.00000   0.00000   0.00000   0.00000   0.00000   0.00000   0.00000
  0.25050   0.00000   0.00000   0.00000   0.00000   0.00000   0.00000   0.00000   0.00000   0.00000
  0.30060   0.00000   0.00000   0.00000   0.00000   0.00000   0.00000   0.00000   0.00000   0.00000
  0.35070   0.00000   0.00000   0.00000   0.00000   0.00000   0.00000   0.00000   0.00000   0.00000
  0.40080   0.00000   0.00000   0.00000   0.00000   0.00000   0.00000   0.00000   0.00000   0.00000
  0.45090   0.00000   0.00000   0.00000   0.00000   0.00000   0.00000   0.00000   0.00000   0.00000
  0.50100   0.00000   0.00000   0.00000   0.00000   0.00000   0.00000   0.00000   0.00000   0.00000
  0.55110   0.00000   0.00000   0.00000   0.00000   0.00000   0.00000   0.00000   0.00000   0.00000
  0.60120   0.00000   0.00000   0.00000   0.00000   0.00000   0.00000   0.00000   0.00000   0.00000
  0.65130   0.00000   0.00000   0.00000   0.00000   0.00000   0.00000   0.00000   0.00000   0.00000
  0.70140   0.00000   0.00000   0.00000   0.00000   0.00000   0.00000   0.00000   0.00000   0.00000
  0.75150   0.00000   0.00000   0.00000   0.00000   0.00000   0.00000   0.00000   0.00000   0.00000
  0.80160   0.00000   0.00000   0.00000   0.00000   0.00000   0.00000   0.00000   0.00000   0.00000
  0.85170   0.00000   0.00000   0.00000   0.00000   0.00000   0.00000   0.00000   0.00000   0.00000
  0.90180   0.00000   0.00000   0.00000   0.00000   0.00000   0.00000   0.00000   0.00000   0.00000
  0.95190   0.00000   0.00000   0.00000   0.00000   0.00000   0.00000   0.00000   0.00000   0.00000
  1.00200   0.00000   0.00000   0.00000   0.00000   0.00000   0.00000   0.00000   0.00000   0.00000
  1.05210   0.00000   0.00000   0.00000   0.00000   0.00000   0.00000   0.00000   0.00000   0.00000
  1.10220   0.00000   0.00000   0.00000   0.00000   0.00000   0.00000   0.00000   0.00000   0.00000
  1.15230   0.00000   0.00000   0.00000   0.00000   0.00000   0.00000   0.00000   0.00000   0.00000
  1.20240   0.00000   0.00000   0.00000   0.00000   0.00000   0.00000   0.00000   0.00000   0.00000
  1.25251   0.00000   0.00000   0.00000   0.00000   0.00000   0.00000   0.00000   0.00000   0.00000
  1.30261   0.00000   0.00000   0.00000   0.00000   0.00000   0.00000   0.00000   0.00000   0.00000
  1.35271   0.00000   0.00000   0.00000   0.00000   0.00000   0.00000   0.00000   0.00000   0.00000
  1.40281   0.00000   0.00000   0.00000   0.00000   0.00000   0.00000   0.00000   0.00000   0.00000
  1.45291   0.00000   0.00000   0.00000   0.00000   0.00000   0.00000   0.00000   0.00000   0.00000
  1.50301   0.00000   0.00000   0.00000   0.00000   0.00000   0.00000   0.00000   0.00000   0.00000
  1.55311   0.00000   0.00000   0.00000   0.00000   0.00000   0.00000   0.00000   0.00000   0.00000
  1.60321   0.00000   0.00000   0.00000   0.00000   0.00000   0.00000   0.00000   0.00000   0.00000
  1.65331   0.00000   0.00000   0.00000   0.00000   0.00000   0.00000   0.00000   0.00000   0.00000
  1.70341   0.00000   0.00000   0.00000   0.00000   0.00000   0.00000   0.00000   0.00000   0.00000
  1.75351   0.00000   0.00000   0.00000   0.00000   0.00000   0.00000   0.00000   0.00000   0.00000
  1.80361   0.00000   0.00000   0.00000   0.00000   0.00000   0.00000   0.00000   0.00000   0.00000
  1.85371   0.00000   0.00000   0.00000   0.00000   0.00000   0.00000   0.00000   0.00000   0.00000
  1.90381   0.00000   0.00000   0.00000   0.00000   0.00000   0.00000   0.00000   0.00000   0.00000
  1.95391   0.00000   0.00000   0.00000   0.00000   0.00000   0.00000   0.00000   0.00000   0.00000
  2.00401   0.00000   0.00000   0.00000   0.00000   0.00000   0.00000   0.00000   0.00000   0.00000
  2.05411   0.00000   0.00000   0.00000   0.00000   0.00000   0.00000   0.00000   0.00000   0.00000
  2.10421   0.00000   0.00000   0.00000   0.00000   0.00000   0.00000   0.00000   0.00000   0.00000
  2.15431   0.00000   0.00000   0.00000   0.00000   0.00000   0.00000   0.00000   0.00000   0.00000
  2.20441   0.00000   0.00000   0.00000   0.00000   0.00000   0.00000   0.00000   0.00000   0.00000
  2.25451   0.00000   0.00000   0.00000   0.00000   0.00000   0.00000   0.00000   0.00000   0.00000
  2.30461   0.00000   0.00000   0.00000   0.00000   0.00000   0.00000   0.00000   0.00000   0.00000
  2.35471   0.00000   0.00000   0.00000   0.00000   0.00000   0.00000   0.00000   0.00000   0.00000
  2.40481   0.00000   0.00000   0.00000   0.00000   0.00000   0.00000   0.00000   0.00000   0.00000
  2.45491   0.00000   0.00000   0.00000   0.00000   0.00000   0.00000   0.00000   0.00000   0.00000
  2.50501   0.00000   0.00000   0.00000   0.00000   0.00000   0.00000   0.00000   0.00000   0.00000
  2.55511   0.00000   0.00000   0.00000   0.00000   0.00000   0.00000   0.00000   0.00000   0.00000
  2.60521  -0.00000   0.00001   0.00025   0.00001   0.00000   0.00000   0.00000   0.00000   0.00000
  2.65531  -0.00001   0.00010   0.00202   0.00010   0.00000   0.00000   0.00000   0.00000   0.00000
  2.70541  -0.00003   0.00025   0.00461   0.00025   0.00000   0.00000   0.00000   0.00000   0.00000
  2.75551  -0.00005   0.00044   0.00787   0.00044   0.00000   0.00000   0.00000   0.00000   0.00000
  2.80561  -0.00007   0.00068   0.01178   0.00068   0.00000   0.00000   0.00000   0.00000   0.00000
  2.85571  -0.00010   0.00097   0.01640   0.00097   0.00000   0.00000   0.00000   0.00000   0.00000
  2.90581  -0.00013   0.00137   0.02199   0.00137   0.00000   0.00000   0.00000   0.00000   0.00000
  2.95591  -0.00016   0.00188   0.02859   0.00188   0.00000   0.00000   0.00000   0.00000   0.00000
  3.00601  -0.00020   0.00249   0.03607   0.00249   0.00000   0.00000   0.00000   0.00000   0.00000
  3.05611  -0.00025   0.00315   0.04480   0.00315   0.00000   0.00000   0.00000   0.00000   0.00000
  3.10621  -0.00032   0.00385   0.05476   0.00385   0.00000   0.00000   0.00000   0.00000   0.00000
  3.15631  -0.00040   0.00458   0.06519   0.00458   0.00000   0.00001   0.00000   0.00001   0.00000
  3.20641  -0.00048   0.00535   0.07609   0.00535   0.00000   0.00001   0.00000   0.00001   0.00000
  3.25651  -0.00058   0.00616   0.08745   0.00616   0.00000   0.00001   0.00000   0.00001   0.00000
  3.30661  -0.00067   0.00699   0.09928   0.00699   0.00000   0.00001   0.00000   0.00001   0.00000
  3.35671  -0.00078   0.00787   0.11158   0.00787   0.00000   0.00001   0.00000   0.00001   0.00000
  3.40681  -0.00089   0.00878   0.12435   0.00878   0.00000   0.00001   0.00001   0.00001   0.00000
  3.45691  -0.00101   0.00973   0.13782   0.00973   0.00000   0.00001   0.00001   0.00001   0.00000
  3.50701  -0.00113   0.01073   0.15254   0.01073   0.00000   0.00002   0.00001   0.00002   0.00000
  3.55711  -0.00127   0.01179   0.16857   0.01179   0.00000   0.00002   0.00001   0.00002   0.00000
  3.60721  -0.00141   0.01290   0.18591   0.01290   0.00000   0.00002   0.00001   0.00002   0.00000
  3.65731  -0.00191   0.02038   0.24745   0.02038   0.00000   0.00003   0.00001   0.00003   0.00001
  3.70741  -0.00381   0.06830   0.39350   0.06830   0.00001   0.00006   0.00001   0.00006   0.00002
  3.75752  -0.00820   0.27079   0.50743   0.27079   0.00001   0.00010   0.00002   0.00010   0.00009
  3.80762  -0.00845   0.35112   0.48923   0.35113   0.00001   0.00011   0.00002   0.00011   0.00010
  3.85772  -0.00885   0.40114   0.50591   0.40114   0.00001   0.00012   0.00002   0.00012   0.00012
  3.90782  -0.00858   0.49812   0.56964   0.49813   0.00001   0.00015   0.00003   0.00015   0.00012
  3.95792  -0.01124   0.53479   0.58654   0.53480   0.00001   0.00018   0.00003   0.00018   0.00013
  4.00802  -0.01278   0.59089   0.50523   0.59090   0.00001   0.00018   0.00003   0.00018   0.00015
  4.05812  -0.01259   0.59932   0.46610   0.59933   0.00001   0.00018   0.00003   0.00018   0.00016
  4.10822  -0.01151   0.51852   0.43120   0.51853   0.00001   0.00019   0.00003   0.00019   0.00016
  4.15832  -0.00961   0.40319   0.39333   0.40320   0.00001   0.00019   0.00003   0.00019   0.00016
  4.20842  -0.00766   0.31889   0.36488   0.31890   0.00001   0.00019   0.00003   0.00019   0.00015
  4.25852  -0.00612   0.26044   0.34496   0.26045   0.00001   0.00019   0.00003   0.00019   0.00014
  4.30862  -0.00537   0.24671   0.33547   0.24672   0.00001   0.00019   0.00003   0.00019   0.00014
  4.35872  -0.00462   0.23302   0.31939   0.23303   0.00001   0.00019   0.00003   0.00019   0.00014
  4.40882  -0.00367   0.21528   0.30154   0.21529   0.00001   0.00018   0.00003   0.00018   0.00013
  4.45892  -0.00084   0.15132   0.28804   0.15132   0.00001   0.00009   0.00002   0.00009   0.00009
  4.50902  -0.00026   0.19392   0.31663   0.19392   0.00001   0.00010   0.00002   0.00010   0.00011
  4.55912   0.00092   0.29495   0.42477   0.29494   0.00002   0.00015   0.00002   0.00015   0.00018
  4.60922   0.00229   0.43024   0.51963   0.43024   0.00003   0.00020   0.00003   0.00020   0.00027
  4.65932   0.00450   0.93403   0.61691   0.93402   0.00003   0.00039   0.00004   0.00039   0.00064
  4.70942   0.00264   0.61501   0.36844   0.61500   0.00003   0.00027   0.00002   0.00027   0.00041
  4.75952   0.00210   0.41832   0.28426   0.41861   0.00002   0.00023   0.00001   0.00023   0.00030
  4.80962   0.00107   0.43241   0.30764   0.43549   0.00002   0.00026   0.00002   0.00026   0.00027
  4.85972  -0.00002   0.48336   0.34448   0.49077   0.00001   0.00029   0.00002   0.00029   0.00025
  4.90982  -0.00036   0.42608   0.34361   0.43827   0.00001   0.00024   0.00001   0.00024   0.00015
  4.95992  -0.00042   0.38473   0.33348   0.40095   0.00001   0.00021   0.00001   0.00022   0.00008
  5.01002  -0.00008   0.37303   0.32436   0.39237   0.00001   0.00021   0.00001   0.00022   0.00003
      5.01002004     -20.04008016   501       4.58027970       1.00000000; Z= 17; 3s 3p_y 3p_z 3p_x 
-20.04008   0.00000   0.00000   0.00000   0.00000
-19.98998   0.00000   0.00000   0.00000   0.00000
-19.93988   0.00000   0.00000   0.00000   0.00000
-19.88978   0.00000   0.00000   0.00000   0.00000
-19.83968   0.00000   0.00000   0.00000   0.00000
-19.78958   0.00000   0.00000   0.00000   0.00000
-19.73948   0.00000   0.00000   0.00000   0.00000
-19.68938   0.00000   0.00000   0.00000   0.00000
-19.63928   0.00000   0.00000   0.00000   0.00000
-19.58918   0.00000   0.00000   0.00000   0.00000
-19.53908   0.00000   0.00000   0.00000   0.00000
-19.48898   0.00000   0.00000   0.00000   0.00000
-19.43888   0.00000   0.00000   0.00000   0.00000
-19.38878   0.00000   0.00000   0.00000   0.00000
-19.33868   0.00000   0.00000   0.00000   0.00000
-19.28858   0.00000   0.00000   0.00000   0.00000
-19.23848   0.00000   0.00000   0.00000   0.00000
-19.18838   0.00000   0.00000   0.00000   0.00000
-19.13828   0.00000   0.00000   0.00000   0.00000
-19.08818   0.00000   0.00000   0.00000   0.00000
-19.03808   0.00000   0.00000   0.00000   0.00000
-18.98798   0.00000   0.00000   0.00000   0.00000
-18.93788   0.00000   0.00000   0.00000   0.00000
-18.88778   0.00000   0.00000   0.00000   0.00000
-18.83768   0.00000   0.00000   0.00000   0.00000
-18.78758   0.00000   0.00000   0.00000   0.00000
-18.73747   0.00000   0.00000   0.00000   0.00000
-18.68737   0.00000   0.00000   0.00000   0.00000
-18.63727   0.00000   0.00000   0.00000   0.00000
-18.58717   0.00000   0.00000   0.00000   0.00000
-18.53707   0.00000   0.00000   0.00000   0.00000
-18.48697   0.00000   0.00000   0.00000   0.00000
-18.43687   0.00010   0.00000  -0.00002   0.00000
-18.38677   0.00063   0.00000  -0.00011   0.00000
-18.33667   0.00119   0.00000  -0.00020   0.00000
-18.28657   0.00175   0.00000  -0.00029   0.00000
-18.23647   0.00231   0.00000  -0.00038   0.00000
-18.18637   0.00288   0.00000  -0.00046   0.00000
-18.13627   0.00303   0.00000  -0.00045   0.00000
-18.08617   0.00280   0.00000  -0.00041   0.00000
-18.03607   0.00258   0.00000  -0.00037   0.00000
-17.98597   0.00236   0.00000  -0.00032   0.00000
-17.93587   0.00215   0.00000  -0.00028   0.00000
-17.88577   0.00211   0.00000  -0.00027   0.00000
-17.83567   0.00216  -0.00000  -0.00028  -0.00000
-17.78557   0.00221  -0.00000  -0.00028  -0.00000
-17.73547   0.00225  -0.00001  -0.00028  -0.00001
-17.68537   0.00229  -0.00001  -0.00029  -0.00001
-17.63527   0.00234  -0.00001  -0.00029  -0.00001
-17.58517   0.00237  -0.00002  -0.00029  -0.00002
-17.53507   0.00241  -0.00002  -0.00029  -0.00002
-17.48497   0.00281  -0.00002  -0.00033  -0.00002
-17.43487   0.00530  -0.00002  -0.00055  -0.00002
-17.38477   0.00470  -0.00004  -0.00050  -0.00004
-17.33467   0.00411  -0.00005  -0.00046  -0.00005
-17.28457   0.00249  -0.00011  -0.00031  -0.00011
-17.23447   0.00165  -0.00013  -0.00022  -0.00013
-17.18437   0.00147  -0.00014  -0.00020  -0.00014
-17.13427   0.00130  -0.00014  -0.00018  -0.00014
-17.08417   0.00113  -0.00014  -0.00016  -0.00014
-17.03407   0.00097  -0.00015  -0.00014  -0.00015
-16.98397   0.00081  -0.00015  -0.00012  -0.00015
-16.93387   0.00066  -0.00015  -0.00010  -0.00015
-16.88377   0.00082  -0.00038  -0.00016  -0.00038
-16.83367   0.00000   0.00000   0.00000   0.00000
-16.78357   0.00000   0.00000   0.00000   0.00000
-16.73347   0.00000   0.00000   0.00000   0.00000
-16.68337   0.00000   0.00000   0.00000   0.00000
-16.63327   0.00290  -0.00165  -0.00033  -0.00165
-16.58317   0.00202  -0.00120  -0.00024  -0.00120
-16.53307   0.00053  -0.00023  -0.00006  -0.00023
-16.48297   0.00048  -0.00021  -0.00006  -0.00021
-16.43287   0.00042  -0.00019  -0.00005  -0.00019
-16.38277   0.00037  -0.00016  -0.00005  -0.00016
-16.33267   0.00032  -0.00014  -0.00004  -0.00014
-16.28257   0.00028  -0.00012  -0.00004  -0.00012
-16.23246   0.00023  -0.00010  -0.00003  -0.00010
-16.18236   0.00018  -0.00008  -0.00003  -0.00008
-16.13226   0.00012  -0.00009  -0.00002  -0.00009
-16.08216   0.00005  -0.00010  -0.00002  -0.00010
-16.03206   0.00002  -0.00005  -0.00001  -0.00005
-15.98196   0.00001  -0.00003  -0.00001  -0.00003
-15.93186   0.00001  -0.00001  -0.00000  -0.00001
-15.88176   0.00000  -0.00000  -0.00000  -0.00000
-15.83166   0.00000   0.00000   0.00000   0.00000
-15.78156   0.00000   0.00000   0.00000   0.00000
-15.73146   0.00000   0.00000   0.00000   0.00000
-15.68136   0.00000   0.00000   0.00000   0.00000
-15.63126   0.00000   0.00000   0.00000   0.00000
-15.58116   0.00000   0.00000   0.00000   0.00000
-15.53106   0.00000   0.00000   0.00000   0.00000
-15.48096   0.00000   0.00000   0.00000   0.00000
-15.43086   0.00000   0.00000   0.00000   0.00000
-15.38076   0.00000   0.00000   0.00000   0.00000
-15.33066   0.00000   0.00000   0.00000   0.00000
-15.28056   0.00000   0.00000   0.00000   0.00000
-15.23046   0.00000   0.00000   0.00000   0.00000
-15.18036   0.00000   0.00000   0.00000   0.00000
-15.13026   0.00000   0.00000   0.00000   0.00000
-15.08016   0.00000   0.00000   0.00000   0.00000
-15.03006   0.00000   0.00000   0.00000   0.00000
-14.97996   0.00000   0.00000   0.00000   0.00000
-14.92986   0.00000   0.00000   0.00000   0.00000
-14.87976   0.00000   0.00000   0.00000   0.00000
-14.82966   0.00000   0.00000   0.00000   0.00000
-14.77956   0.00000   0.00000   0.00000   0.00000
-14.72946   0.00000   0.00000   0.00000   0.00000
-14.67936   0.00000   0.00000   0.00000   0.00000
-14.62926   0.00000   0.00000   0.00000   0.00000
-14.57916   0.00000   0.00000   0.00000   0.00000
-14.52906   0.00000   0.00000   0.00000   0.00000
-14.47896   0.00000   0.00000   0.00000   0.00000
-14.42886   0.00000   0.00000   0.00000   0.00000
-14.37876   0.00000   0.00000   0.00000   0.00000
-14.32866   0.00000   0.00000   0.00000   0.00000
-14.27856   0.00000   0.00000   0.00000   0.00000
-14.22846   0.00000   0.00000   0.00000   0.00000
-14.17836   0.00000   0.00000   0.00000   0.00000
-14.12826   0.00000   0.00000   0.00000   0.00000
-14.07816   0.00000   0.00000   0.00000   0.00000
-14.02806   0.00000   0.00000   0.00000   0.00000
-13.97796   0.00000   0.00000   0.00000   0.00000
-13.92786   0.00000   0.00000   0.00000   0.00000
-13.87776   0.00000   0.00000   0.00000   0.00000
-13.82766   0.03583   0.00001  -0.00001   0.00001
-13.77756   0.16671   0.00004  -0.00006   0.00004
-13.72745   0.37978   0.00011  -0.00014   0.00011
-13.67735   0.67761   0.00022  -0.00024   0.00022
-13.62725   0.93362   0.00033  -0.00034   0.00033
-13.57715   1.08913   0.00042  -0.00037   0.00042
-13.52705   1.14446   0.00048  -0.00028   0.00048
-13.47695   1.22423   0.00053  -0.00017   0.00053
-13.42685   1.40861   0.00059   0.00003   0.00059
-13.37675   2.05179   0.00082   0.00100   0.00082
-13.32665   3.67844   0.00132   0.00306   0.00132
-13.27655   3.95265   0.00084   0.00546   0.00084
-13.22645   5.18605   0.00044   0.00982   0.00044
-13.17635   8.68042   0.00058   0.01387   0.00058
-13.12625   5.58800   0.00020   0.00686   0.00020
-13.07615   1.36318  -0.00001   0.00161  -0.00001
-13.02605   0.00000   0.00000   0.00000   0.00000
-12.97595   0.00000   0.00000   0.00000   0.00000
-12.92585   0.00000   0.00000   0.00000   0.00000
-12.87575   0.00000   0.00000   0.00000   0.00000
-12.82565   0.00000   0.00000   0.00000   0.00000
-12.77555   0.00000   0.00000   0.00000   0.00000
-12.72545   0.00000   0.00000   0.00000   0.00000
-12.67535   0.00000   0.00000   0.00000   0.00000
-12.62525   0.00000   0.00000   0.00000   0.00000
-12.57515   0.00000   0.00000   0.00000   0.00000
-12.52505   0.00000   0.00000   0.00000   0.00000
-12.47495   0.00000   0.00000   0.00000   0.00000
-12.42485   0.00000   0.00000   0.00000   0.00000
-12.37475   0.00000   0.00000   0.00000   0.00000
-12.32465   0.00000   0.00000   0.00000   0.00000
-12.27455   0.00000   0.00000   0.00000   0.00000
-12.22445   0.00000   0.00000   0.00000   0.00000
-12.17435   0.00000   0.00000   0.00000   0.00000
-12.12425   0.00000   0.00000   0.00000   0.00000
-12.07415   0.00000   0.00000   0.00000   0.00000
-12.02405   0.00000   0.00000   0.00000   0.00000
-11.97395   0.00000   0.00000   0.00000   0.00000
-11.92385   0.00000   0.00000   0.00000   0.00000
-11.87375   0.00000   0.00000   0.00000   0.00000
-11.82365   0.00000   0.00000   0.00000   0.00000
-11.77355   0.00000   0.00000   0.00000   0.00000
-11.72345   0.00000   0.00000   0.00000   0.00000
-11.67335   0.00000   0.00000   0.00000   0.00000
-11.62325   0.00000   0.00000   0.00000   0.00000
-11.57315   0.00000   0.00000   0.00000   0.00000
-11.52305   0.00000   0.00000   0.00000   0.00000
-11.47295   0.00000   0.00000   0.00000   0.00000
-11.42285   0.00000   0.00000   0.00000   0.00000
-11.37275   0.00000   0.00000   0.00000   0.00000
-11.32265   0.00000   0.00000   0.00000   0.00000
-11.27255   0.00000   0.00000   0.00000   0.00000
-11.22244   0.00000   0.00000   0.00000   0.00000
-11.17234   0.00000   0.00000   0.00000   0.00000
-11.12224   0.00000   0.00000   0.00000   0.00000
-11.07214   0.00000   0.00000   0.00000   0.00000
-11.02204   0.00000   0.00000   0.00000   0.00000
-10.97194   0.00000   0.00000   0.00000   0.00000
-10.92184   0.00000   0.00000   0.00000   0.00000
-10.87174   0.00000   0.00000   0.00000   0.00000
-10.82164   0.00000   0.00000   0.00000   0.00000
-10.77154   0.00000   0.00000   0.00000   0.00000
-10.72144   0.00000   0.00000   0.00000   0.00000
-10.67134   0.00000   0.00000   0.00000   0.00000
-10.62124   0.00000   0.00000   0.00000   0.00000
-10.57114   0.00000   0.00000   0.00000   0.00000
-10.52104   0.00000   0.00000   0.00000   0.00000
-10.47094   0.00000   0.00000   0.00000   0.00000
-10.42084   0.00000   0.00000   0.00000   0.00000
-10.37074   0.00000   0.00000   0.00000   0.00000
-10.32064   0.00000   0.00000   0.00000   0.00000
-10.27054   0.00000   0.00000   0.00000   0.00000
-10.22044   0.00000   0.00000   0.00000   0.00000
-10.17034   0.00000   0.00000   0.00000   0.00000
-10.12024   0.00000   0.00000   0.00000   0.00000
-10.07014   0.00000   0.00000   0.00000   0.00000
-10.02004   0.00000   0.00000   0.00000   0.00000
 -9.96994   0.00000   0.00000   0.00000   0.00000
 -9.91984   0.00000   0.00000   0.00000   0.00000
 -9.86974   0.00000   0.00000   0.00000   0.00000
 -9.81964   0.00000   0.00000   0.00000   0.00000
 -9.76954   0.00349   0.00397   0.00017   0.00397
 -9.71944   0.00770   0.00458   0.00043   0.00458
 -9.66934   0.01290   0.00643   0.00074   0.00643
 -9.61924   0.02445   0.00974   0.00159   0.00974
 -9.56914   0.07753   0.01981   0.00522   0.01981
 -9.51904   0.10913   0.02113   0.00764   0.02113
 -9.46894   0.14195   0.02450   0.01048   0.02450
 -9.41884   0.12751   0.01693   0.00905   0.01693
 -9.36874   0.07905   0.00594   0.00606   0.00594
 -9.31864   0.04309   0.00246   0.00372   0.00246
 -9.26854   0.01877   0.00195   0.00174   0.00195
 -9.21844   0.00446   0.00181   0.00051   0.00181
 -9.16834   0.00244   0.00195   0.00034   0.00195
 -9.11824   0.00264   0.00215   0.00037   0.00215
 -9.06814   0.00284   0.00235   0.00040   0.00235
 -9.01804   0.00304   0.00255   0.00044   0.00255
 -8.96794   0.00325   0.00276   0.00047   0.00276
 -8.91784   0.00359   0.00330   0.00055   0.00330
 -8.86774   0.00577   0.00666   0.00093   0.00666
 -8.81764   0.00745   0.00853   0.00112   0.00853
 -8.76754   0.00837   0.00945   0.00127   0.00945
 -8.71743   0.00931   0.01039   0.00142   0.01039
 -8.66733   0.00984   0.00995   0.00144   0.00995
 -8.61723   0.00789   0.00524   0.00122   0.00524
 -8.56713   0.00709   0.00378   0.00123   0.00378
 -8.51703   0.00723   0.00369   0.00127   0.00369
 -8.46693   0.00737   0.00361   0.00130   0.00361
 -8.41683   0.00750   0.00352   0.00133   0.00352
 -8.36673   0.00763   0.00343   0.00136   0.00343
 -8.31663   0.00774   0.00334   0.00139   0.00334
 -8.26653   0.00786   0.00325   0.00142   0.00325
 -8.21643   0.00796   0.00316   0.00145   0.00316
 -8.16633   0.00806   0.00306   0.00147   0.00306
 -8.11623   0.00815   0.00297   0.00150   0.00297
 -8.06613   0.00824   0.00288   0.00152   0.00288
 -8.01603   0.00832   0.00279   0.00155   0.00279
 -7.96593   0.00842   0.00270   0.00157   0.00270
 -7.91583   0.00875   0.00263   0.00166   0.00263
 -7.86573   0.00935   0.00258   0.00180   0.00258
 -7.81563   0.01024   0.00255   0.00201   0.00255
 -7.76553   0.01118   0.00253   0.00223   0.00253
 -7.71543   0.01212   0.00250   0.00245   0.00250
 -7.66533   0.01308   0.00247   0.00268   0.00247
 -7.61523   0.01404   0.00244   0.00290   0.00244
 -7.56513   0.01492   0.00234   0.00311   0.00234
 -7.51503   0.01518   0.00203   0.00319   0.00203
 -7.46493   0.01493   0.00176   0.00319   0.00176
 -7.41483   0.01398   0.00143   0.00310   0.00143
 -7.36473   0.01271   0.00121   0.00287   0.00121
 -7.31463   0.01144   0.00105   0.00259   0.00105
 -7.26453   0.01013   0.00089   0.00231   0.00089
 -7.21443   0.00879   0.00074   0.00201   0.00074
 -7.16433   0.00741   0.00059   0.00171   0.00059
 -7.11423   0.00600   0.00046   0.00139   0.00046
 -7.06413   0.00456   0.00033   0.00106   0.00033
 -7.01403   0.00309   0.00021   0.00072   0.00021
 -6.96393   0.00176   0.00011   0.00041   0.00011
 -6.91383   0.00082   0.00005   0.00019   0.00005
 -6.86373   0.00019   0.00001   0.00004   0.00001
 -6.81363   0.00000   0.00000   0.00000   0.00000
 -6.76353   0.00000   0.00000   0.00000   0.00000
 -6.71343   0.00000   0.00000   0.00000   0.00000
 -6.66333   0.00000   0.00000   0.00000   0.00000
 -6.61323   0.00000   0.00000   0.00000   0.00000
 -6.56313   0.00000   0.00000   0.00000   0.00000
 -6.51303   0.00000   0.00000   0.00000   0.00000
 -6.46293   0.00000   0.00000   0.00000   0.00000
 -6.41283   0.00000   0.00000   0.00000   0.00000
 -6.36273   0.00000   0.00000   0.00000   0.00000
 -6.31263   0.00000   0.00000   0.00000   0.00000
 -6.26253   0.00000   0.00000   0.00000   0.00000
 -6.21242   0.00000   0.00000   0.00000   0.00000
 -6.16232   0.00000   0.00000   0.00000   0.00000
 -6.11222   0.00000   0.00000   0.00000   0.00000
 -6.06212   0.00000   0.00000   0.00000   0.00000
 -6.01202   0.00000   0.00000   0.00000   0.00000
 -5.96192   0.00000   0.00000   0.00000   0.00000
 -5.91182   0.00000   0.00000   0.00000   0.00000
 -5.86172   0.00000   0.00000   0.00000   0.00000
 -5.81162   0.00000   0.00000   0.00000   0.00000
 -5.76152   0.00000   0.00000   0.00000   0.00000
 -5.71142   0.00000   0.00000   0.00000   0.00000
 -5.66132   0.00000   0.00000   0.00000   0.00000
 -5.61122   0.00000   0.00000   0.00000   0.00000
 -5.56112   0.00000   0.00000   0.00000   0.00000
 -5.51102   0.00000   0.00000   0.00000   0.00000
 -5.46092   0.00000   0.00000   0.00000   0.00000
 -5.41082   0.00000   0.00000   0.00000   0.00000
 -5.36072   0.00000   0.00000   0.00000   0.00000
 -5.31062   0.00000   0.00000   0.00000   0.00000
 -5.26052   0.00000   0.00000   0.00000   0.00000
 -5.21042   0.00000   0.00000   0.00000   0.00000
 -5.16032   0.00000   0.00000   0.00000   0.00000
 -5.11022   0.00000   0.00000   0.00000   0.00000
 -5.06012   0.00000   0.00000   0.00000   0.00000
 -5.01002   0.00000   0.00000   0.00000   0.00000
 -4.95992   0.00000   0.00000   0.00000   0.00000
 -4.90982   0.00000   0.00000   0.00000   0.00000
 -4.85972   0.00000   0.00000   0.00000   0.00000
 -4.80962   0.00000   0.00000   0.00000   0.00000
 -4.75952   0.00035   0.00062   0.00188   0.00062
 -4.70942   0.04293   0.15362   0.24667   0.15348
 -4.65932   0.04474   0.13096   0.20126   0.13031
 -4.60922   0.03416   0.06292   0.16357   0.06161
 -4.55912   0.02327   0.02622   0.13239   0.02416
 -4.50902   0.02250   0.02389   0.13639   0.02098
 -4.45892   0.02407   0.02920   0.15618   0.02525
 -4.40882   0.01819   0.02232   0.11928   0.02181
 -4.35872   0.01269   0.06471   0.08891   0.06627
 -4.30862   0.01141   0.07321   0.08264   0.07513
 -4.25852   0.01017   0.10606   0.07979   0.10821
 -4.20842   0.00912   0.15420   0.09107   0.15539
 -4.15832   0.00830   0.17549   0.11037   0.17637
 -4.10822   0.00601   0.12936   0.08036   0.13014
 -4.05812   0.00379   0.10553   0.06263   0.10622
 -4.00802   0.00173   0.09129   0.04796   0.09188
 -3.95792   0.00147   0.08602   0.04697   0.08651
 -3.90782   0.00143   0.08086   0.04775   0.08127
 -3.85772   0.00140   0.07569   0.04862   0.07602
 -3.80762   0.00137   0.07052   0.04957   0.07077
 -3.75752   0.00134   0.06534   0.05060   0.06551
 -3.70741   0.00132   0.06016   0.05170   0.06026
 -3.65731   0.00140   0.08191   0.06303   0.08194
 -3.60721   0.00117   0.07447   0.04914   0.07448
 -3.55711   0.00081   0.05320   0.02679   0.05320
 -3.50701   0.00068   0.05337   0.01767   0.05338
 -3.45691   0.00109   0.07189   0.02314   0.07190
 -3.40681   0.00167   0.09454   0.03286   0.09455
 -3.35671   0.00249   0.14645   0.04890   0.14647
 -3.30661   0.00460   0.17608   0.07892   0.17612
 -3.25651   0.00576   0.22132   0.09954   0.22138
 -3.20641   0.00668   0.26375   0.11765   0.26381
 -3.15631   0.00740   0.29505   0.13445   0.29514
 -3.10621   0.00577   0.23945   0.10676   0.23951
 -3.05611   0.00338   0.17439   0.09476   0.17440
 -3.00601   0.00969   0.48372   0.17025   0.48363
 -2.95591   0.01470   0.65893   0.22995   0.65880
 -2.90581   0.01102   0.55246   0.21848   0.55239
 -2.85571   0.00778   0.37976   0.17567   0.37975
 -2.80561   0.00634   0.31706   0.16001   0.31720
 -2.75551   0.00582   0.28961   0.16019   0.28991
 -2.70541   0.00516   0.25865   0.15782   0.25913
 -2.65531   0.00455   0.23088   0.16116   0.23154
 -2.60521   0.00405   0.20733   0.16711   0.20818
 -2.55511   0.00401   0.20275   0.18082   0.20379
 -2.50501   0.00445   0.26419   0.27394   0.26542
 -2.45491   0.00508   0.21067   0.28815   0.21211
 -2.40481   0.00566   0.24223   0.33788   0.24387
 -2.35471   0.00704   0.33987   0.48946   0.34160
 -2.30461   0.00707   0.39391   0.51656   0.39535
 -2.25451   0.00594   0.28756   0.36219   0.28848
 -2.20441   0.00596   0.26172   0.29425   0.26214
 -2.15431   0.00613   0.27000   0.27251   0.27170
 -2.10421   0.00596   0.27348   0.25170   0.27363
 -2.05411   0.00584   0.27756   0.23504   0.27251
 -2.00401   0.00613   0.41457   0.34872   0.40757
 -1.95391   0.00554   0.33314   0.27332   0.32510
 -1.90381   0.00426   0.31751   0.27606   0.31052
 -1.85371   0.00388   0.33020   0.31431   0.32492
 -1.80361   0.00376   0.39660   0.40299   0.39416
 -1.75351   0.00365   0.47164   0.46598   0.47646
 -1.70341   0.00223   0.42386   0.32945   0.43152
 -1.65331   0.00126   0.30686   0.20033   0.31339
 -1.60321   0.00115   0.28912   0.18033   0.29135
 -1.55311   0.00133   0.30011   0.22558   0.30105
 -1.50301   0.00160   0.37156   0.29088   0.37303
 -1.45291   0.00251   0.73379   0.47156   0.73571
 -1.40281   0.00302   1.18713   0.54901   1.17389
 -1.35271   0.00230   1.15728   0.51546   1.13138
 -1.30261   0.00230   1.09966   0.57560   1.09340
 -1.25251   0.00252   1.10085   0.67453   1.11095
 -1.20240   0.00287   1.07741   0.83479   1.09454
 -1.15230   0.00303   0.84417   0.86421   0.85510
 -1.10220   0.00206   0.68355   0.68136   0.68952
 -1.05210   0.00094   0.64695   0.79175   0.65868
 -1.00200   0.00177   1.97240   1.53926   2.00340
 -0.95190   0.00315   1.78228   2.14971   1.81370
 -0.90180   0.00345   0.83007   2.77826   0.83807
 -0.85170   0.00223   0.86118   2.34154   0.81500
 -0.80160   0.00167   0.45530   1.95065   0.43813
 -0.75150   0.00168   0.41142   1.93721   0.39903
 -0.70140   0.00172   0.38867   1.50063   0.38190
 -0.65130   0.00158   0.40100   1.09513   0.39811
 -0.60120   0.00179   0.46789   0.81168   0.46735
 -0.55110   0.00332   0.84922   1.45258   0.84916
 -0.50100   0.00391   0.95664   1.03003   0.95658
 -0.45090   0.00371   0.89467   0.63412   0.89467
 -0.40080   0.00441   0.93949   0.50878   0.93953
 -0.35070   0.00394   0.81440   0.35452   0.81442
 -0.30060   0.00235   0.54515   0.19326   0.54517
 -0.25050   0.00107   0.37179   0.10006   0.37182
 -0.20040   0.00065   0.27524   0.06582   0.27528
 -0.15030   0.00036   0.19967   0.04437   0.19971
 -0.10020   0.00017   0.13243   0.02721   0.13245
 -0.05010   0.00005   0.05968   0.01104   0.05969
 -0.00000   0.00000   0.00000   0.00000   0.00000
  0.05010   0.00000   0.00000   0.00000   0.00000
  0.10020   0.00000   0.00000   0.00000   0.00000
  0.15030   0.00000   0.00000   0.00000   0.00000
  0.20040   0.00000   0.00000   0.00000   0.00000
  0.25050   0.00000   0.00000   0.00000   0.00000
  0.30060   0.00000   0.00000   0.00000   0.00000
  0.35070   0.00000   0.00000   0.00000   0.00000
  0.40080   0.00000   0.00000   0.00000   0.00000
  0.45090   0.00000   0.00000   0.00000   0.00000
  0.50100   0.00000   0.00000   0.00000   0.00000
  0.55110   0.00000   0.00000   0.00000   0.00000
  0.60120   0.00000   0.00000   0.00000   0.00000
  0.65130   0.00000   0.00000   0.00000   0.00000
  0.70140   0.00000   0.00000   0.00000   0.00000
  0.75150   0.00000   0.00000   0.00000   0.00000
  0.80160   0.00000   0.00000   0.00000   0.00000
  0.85170   0.00000   0.00000   0.00000   0.00000
  0.90180   0.00000   0.00000   0.00000   0.00000
  0.95190   0.00000   0.00000   0.00000   0.00000
  1.00200   0.00000   0.00000   0.00000   0.00000
  1.05210   0.00000   0.00000   0.00000   0.00000
  1.10220   0.00000   0.00000   0.00000   0.00000
  1.15230   0.00000   0.00000   0.00000   0.00000
  1.20240   0.00000   0.00000   0.00000   0.00000
  1.25251   0.00000   0.00000   0.00000   0.00000
  1.30261   0.00000   0.00000   0.00000   0.00000
  1.35271   0.00000   0.00000   0.00000   0.00000
  1.40281   0.00000   0.00000   0.00000   0.00000
  1.45291   0.00000   0.00000   0.00000   0.00000
  1.50301   0.00000   0.00000   0.00000   0.00000
  1.55311   0.00000   0.00000   0.00000   0.00000
  1.60321   0.00000   0.00000   0.00000   0.00000
  1.65331   0.00000   0.00000   0.00000   0.00000
  1.70341   0.00000   0.00000   0.00000   0.00000
  1.75351   0.00000   0.00000   0.00000   0.00000
  1.80361   0.00000   0.00000   0.00000   0.00000
  1.85371   0.00000   0.00000   0.00000   0.00000
  1.90381   0.00000   0.00000   0.00000   0.00000
  1.95391   0.00000   0.00000   0.00000   0.00000
  2.00401   0.00000   0.00000   0.00000   0.00000
  2.05411   0.00000   0.00000   0.00000   0.00000
  2.10421   0.00000   0.00000   0.00000   0.00000
  2.15431   0.00000   0.00000   0.00000   0.00000
  2.20441   0.00000   0.00000   0.00000   0.00000
  2.25451   0.00000   0.00000   0.00000   0.00000
  2.30461   0.00000   0.00000   0.00000   0.00000
  2.35471   0.00000   0.00000   0.00000   0.00000
  2.40481   0.00000   0.00000   0.00000   0.00000
  2.45491   0.00000   0.00000   0.00000   0.00000
  2.50501   0.00000   0.00000   0.00000   0.00000
  2.55511   0.00000   0.00000   0.00000   0.00000
  2.60521   0.00000   0.00000   0.00000   0.00000
  2.65531   0.00001   0.00003   0.00003   0.00003
  2.70541   0.00003   0.00006   0.00009   0.00006
  2.75551   0.00006   0.00010   0.00016   0.00010
  2.80561   0.00009   0.00015   0.00024   0.00015
  2.85571   0.00013   0.00021   0.00035   0.00021
  2.90581   0.00019   0.00027   0.00051   0.00027
  2.95591   0.00027   0.00035   0.00071   0.00035
  3.00601   0.00036   0.00043   0.00096   0.00043
  3.05611   0.00049   0.00053   0.00123   0.00053
  3.10621   0.00065   0.00066   0.00152   0.00066
  3.15631   0.00081   0.00079   0.00182   0.00079
  3.20641   0.00099   0.00094   0.00214   0.00094
  3.25651   0.00119   0.00109   0.00248   0.00109
  3.30661   0.00139   0.00126   0.00283   0.00126
  3.35671   0.00160   0.00145   0.00319   0.00145
  3.40681   0.00183   0.00164   0.00357   0.00164
  3.45691   0.00206   0.00185   0.00399   0.00185
  3.50701   0.00232   0.00208   0.00449   0.00208
  3.55711   0.00259   0.00234   0.00509   0.00234
  3.60721   0.00288   0.00262   0.00579   0.00262
  3.65731   0.00343   0.00423   0.00758   0.00423
  3.70741   0.00543   0.00890   0.01450   0.00890
  3.75752   0.01182   0.02035   0.03571   0.02035
  3.80762   0.01434   0.02908   0.04331   0.02908
  3.85772   0.01610   0.03457   0.04944   0.03457
  3.90782   0.01954   0.05010   0.05881   0.05010
  3.95792   0.02158   0.04662   0.07218   0.04662
  4.00802   0.02171   0.05048   0.08274   0.05048
  4.05812   0.02150   0.05113   0.09120   0.05113
  4.10822   0.02080   0.03907   0.08256   0.03907
  4.15832   0.01951   0.02430   0.06629   0.02430
  4.20842   0.01827   0.01661   0.05232   0.01661
  4.25852   0.01736   0.01226   0.04189   0.01226
  4.30862   0.01720   0.01216   0.03887   0.01216
  4.35872   0.01686   0.01202   0.03571   0.01202
  4.40882   0.01566   0.01386   0.03101   0.01386
  4.45892   0.00770   0.02881   0.01363   0.02881
  4.50902   0.00825   0.03801   0.01450   0.03801
  4.55912   0.01112   0.05739   0.01826   0.05739
  4.60922   0.01439   0.08155   0.02304   0.08155
  4.65932   0.02716   0.15274   0.04956   0.15274
  4.70942   0.01796   0.09626   0.03953   0.09626
  4.75952   0.01437   0.05177   0.03514   0.05182
  4.80962   0.01447   0.04501   0.04381   0.04547
  4.85972   0.01431   0.04524   0.05214   0.04632
  4.90982   0.01044   0.03925   0.04369   0.04103
  4.95992   0.00834   0.03301   0.03744   0.03537
  5.01002   0.00758   0.02902   0.03400   0.03182
      5.01002004     -20.04008016   501       4.58027970       1.00000000; Z= 17; 3s 3p_y 3p_z 3p_x 
-20.04008   0.00000   0.00000   0.00000   0.00000
-19.98998   0.00000   0.00000   0.00000   0.00000
-19.93988   0.00000   0.00000   0.00000   0.00000
-19.88978   0.00000   0.00000   0.00000   0.00000
-19.83968   0.00000   0.00000   0.00000   0.00000
-19.78958   0.00000   0.00000   0.00000   0.00000
-19.73948   0.00000   0.00000   0.00000   0.00000
-19.68938   0.00000   0.00000   0.00000   0.00000
-19.63928   0.00000   0.00000   0.00000   0.00000
-19.58918   0.00000   0.00000   0.00000   0.00000
-19.53908   0.00000   0.00000   0.00000   0.00000
-19.48898   0.00000   0.00000   0.00000   0.00000
-19.43888   0.00000   0.00000   0.00000   0.00000
-19.38878   0.00000   0.00000   0.00000   0.00000
-19.33868   0.00000   0.00000   0.00000   0.00000
-19.28858   0.00000   0.00000   0.00000   0.00000
-19.23848   0.00000   0.00000   0.00000   0.00000
-19.18838   0.00000   0.00000   0.00000   0.00000
-19.13828   0.00000   0.00000   0.00000   0.00000
-19.08818   0.00000   0.00000   0.00000   0.00000
-19.03808   0.00000   0.00000   0.00000   0.00000
-18.98798   0.00000   0.00000   0.00000   0.00000
-18.93788   0.00000   0.00000   0.00000   0.00000
-18.88778   0.00000   0.00000   0.00000   0.00000
-18.83768   0.00000   0.00000   0.00000   0.00000
-18.78758   0.00000   0.00000   0.00000   0.00000
-18.73747   0.00000   0.00000   0.00000   0.00000
-18.68737   0.00000   0.00000   0.00000   0.00000
-18.63727   0.00000   0.00000   0.00000   0.00000
-18.58717   0.00000   0.00000   0.00000   0.00000
-18.53707   0.00000   0.00000   0.00000   0.00000
-18.48697   0.00000   0.00000   0.00000   0.00000
-18.43687   0.00010   0.00000  -0.00002   0.00000
-18.38677   0.00063   0.00000  -0.00011   0.00000
-18.33667   0.00119   0.00000  -0.00020   0.00000
-18.28657   0.00175   0.00000  -0.00029   0.00000
-18.23647   0.00231   0.00000  -0.00038   0.00000
-18.18637   0.00288   0.00000  -0.00046   0.00000
-18.13627   0.00303   0.00000  -0.00045   0.00000
-18.08617   0.00280   0.00000  -0.00041   0.00000
-18.03607   0.00258   0.00000  -0.00037   0.00000
-17.98597   0.00236   0.00000  -0.00032   0.00000
-17.93587   0.00215   0.00000  -0.00028   0.00000
-17.88577   0.00211   0.00000  -0.00027   0.00000
-17.83567   0.00216  -0.00000  -0.00028  -0.00000
-17.78557   0.00221  -0.00000  -0.00028  -0.00000
-17.73547   0.00225  -0.00001  -0.00028  -0.00001
-17.68537   0.00229  -0.00001  -0.00029  -0.00001
-17.63527   0.00234  -0.00001  -0.00029  -0.00001
-17.58517   0.00237  -0.00002  -0.00029  -0.00002
-17.53507   0.00241  -0.00002  -0.00029  -0.00002
-17.48497   0.00281  -0.00002  -0.00033  -0.00002
-17.43487   0.00530  -0.00002  -0.00055  -0.00002
-17.38477   0.00470  -0.00004  -0.00050  -0.00004
-17.33467   0.00411  -0.00005  -0.00046  -0.00005
-17.28457   0.00249  -0.00011  -0.00031  -0.00011
-17.23447   0.00165  -0.00013  -0.00022  -0.00013
-17.18437   0.00147  -0.00014  -0.00020  -0.00014
-17.13427   0.00130  -0.00014  -0.00018  -0.00014
-17.08417   0.00113  -0.00014  -0.00016  -0.00014
-17.03407   0.00097  -0.00015  -0.00014  -0.00015
-16.98397   0.00081  -0.00015  -0.00012  -0.00015
-16.93387   0.00066  -0.00015  -0.00010  -0.00015
-16.88377   0.00082  -0.00038  -0.00016  -0.00038
-16.83367   0.00000   0.00000   0.00000   0.00000
-16.78357   0.00000   0.00000   0.00000   0.00000
-16.73347   0.00000   0.00000   0.00000   0.00000
-16.68337   0.00000   0.00000   0.00000   0.00000
-16.63327   0.00290  -0.00165  -0.00033  -0.00165
-16.58317   0.00202  -0.00120  -0.00024  -0.00120
-16.53307   0.00053  -0.00023  -0.00006  -0.00023
-16.48297   0.00048  -0.00021  -0.00006  -0.00021
-16.43287   0.00042  -0.00019  -0.00005  -0.00019
-16.38277   0.00037  -0.00016  -0.00005  -0.00016
-16.33267   0.00032  -0.00014  -0.00004  -0.00014
-16.28257   0.00028  -0.00012  -0.00004  -0.00012
-16.23246   0.00023  -0.00010  -0.00003  -0.00010
-16.18236   0.00018  -0.00008  -0.00003  -0.00008
-16.13226   0.00012  -0.00009  -0.00002  -0.00009
-16.08216   0.00005  -0.00010  -0.00002  -0.00010
-16.03206   0.00002  -0.00005  -0.00001  -0.00005
-15.98196   0.00001  -0.00003  -0.00001  -0.00003
-15.93186   0.00001  -0.00001  -0.00000  -0.00001
-15.88176   0.00000  -0.00000  -0.00000  -0.00000
-15.83166   0.00000   0.00000   0.00000   0.00000
-15.78156   0.00000   0.00000   0.00000   0.00000
-15.73146   0.00000   0.00000   0.00000   0.00000
-15.68136   0.00000   0.00000   0.00000   0.00000
-15.63126   0.00000   0.00000   0.00000   0.00000
-15.58116   0.00000   0.00000   0.00000   0.00000
-15.53106   0.00000   0.00000   0.00000   0.00000
-15.48096   0.00000   0.00000   0.00000   0.00000
-15.43086   0.00000   0.00000   0.00000   0.00000
-15.38076   0.00000   0.00000   0.00000   0.00000
-15.33066   0.00000   0.00000   0.00000   0.00000
-15.28056   0.00000   0.00000   0.00000   0.00000
-15.23046   0.00000   0.00000   0.00000   0.00000
-15.18036   0.00000   0.00000   0.00000   0.00000
-15.13026   0.00000   0.00000   0.00000   0.00000
-15.08016   0.00000   0.00000   0.00000   0.00000
-15.03006   0.00000   0.00000   0.00000   0.00000
-14.97996   0.00000   0.00000   0.00000   0.00000
-14.92986   0.00000   0.00000   0.00000   0.00000
-14.87976   0.00000   0.00000   0.00000   0.00000
-14.82966   0.00000   0.00000   0.00000   0.00000
-14.77956   0.00000   0.00000   0.00000   0.00000
-14.72946   0.00000   0.00000   0.00000   0.00000
-14.67936   0.00000   0.00000   0.00000   0.00000
-14.62926   0.00000   0.00000   0.00000   0.00000
-14.57916   0.00000   0.00000   0.00000   0.00000
-14.52906   0.00000   0.00000   0.00000   0.00000
-14.47896   0.00000   0.00000   0.00000   0.00000
-14.42886   0.00000   0.00000   0.00000   0.00000
-14.37876   0.00000   0.00000   0.00000   0.00000
-14.32866   0.00000   0.00000   0.00000   0.00000
-14.27856   0.00000   0.00000   0.00000   0.00000
-14.22846   0.00000   0.00000   0.00000   0.00000
-14.17836   0.00000   0.00000   0.00000   0.00000
-14.12826   0.00000   0.00000   0.00000   0.00000
-14.07816   0.00000   0.00000   0.00000   0.00000
-14.02806   0.00000   0.00000   0.00000   0.00000
-13.97796   0.00000   0.00000   0.00000   0.00000
-13.92786   0.00000   0.00000   0.00000   0.00000
-13.87776   0.00000   0.00000   0.00000   0.00000
-13.82766   0.03583   0.00001  -0.00001   0.00001
-13.77756   0.16671   0.00004  -0.00006   0.00004
-13.72745   0.37978   0.00011  -0.00014   0.00011
-13.67735   0.67761   0.00022  -0.00024   0.00022
-13.62725   0.93362   0.00033  -0.00034   0.00033
-13.57715   1.08913   0.00042  -0.00037   0.00042
-13.52705   1.14446   0.00048  -0.00028   0.00048
-13.47695   1.22423   0.00053  -0.00017   0.00053
-13.42685   1.40861   0.00059   0.00003   0.00059
-13.37675   2.05179   0.00082   0.00100   0.00082
-13.32665   3.67844   0.00132   0.00306   0.00132
-13.27655   3.95265   0.00084   0.00546   0.00084
-13.22645   5.18605   0.00044   0.00982   0.00044
-13.17635   8.68042   0.00058   0.01387   0.00058
-13.12625   5.58800   0.00020   0.00686   0.00020
-13.07615   1.36318  -0.00001   0.00161  -0.00001
-13.02605   0.00000   0.00000   0.00000   0.00000
-12.97595   0.00000   0.00000   0.00000   0.00000
-12.92585   0.00000   0.00000   0.00000   0.00000
-12.87575   0.00000   0.00000   0.00000   0.00000
-12.82565   0.00000   0.00000   0.00000   0.00000
-12.77555   0.00000   0.00000   0.00000   0.00000
-12.72545   0.00000   0.00000   0.00000   0.00000
-12.67535   0.00000   0.00000   0.00000   0.00000
-12.62525   0.00000   0.00000   0.00000   0.00000
-12.57515   0.00000   0.00000   0.00000   0.00000
-12.52505   0.00000   0.00000   0.00000   0.00000
-12.47495   0.00000   0.00000   0.00000   0.00000
-12.42485   0.00000   0.00000   0.00000   0.00000
-12.37475   0.00000   0.00000   0.00000   0.00000
-12.32465   0.00000   0.00000   0.00000   0.00000
-12.27455   0.00000   0.00000   0.00000   0.00000
-12.22445   0.00000   0.00000   0.00000   0.00000
-12.17435   0.00000   0.00000   0.00000   0.00000
-12.12425   0.00000   0.00000   0.00000   0.00000
-12.07415   0.00000   0.00000   0.00000   0.00000
-12.02405   0.00000   0.00000   0.00000   0.00000
-11.97395   0.00000   0.00000   0.00000   0.00000
-11.92385   0.00000   0.00000   0.00000   0.00000
-11.87375   0.00000   0.00000   0.00000   0.00000
-11.82365   0.00000   0.00000   0.00000   0.00000
-11.77355   0.00000   0.00000   0.00000   0.00000
-11.72345   0.00000   0.00000   0.00000   0.00000
-11.67335   0.00000   0.00000   0.00000   0.00000
-11.62325   0.00000   0.00000   0.00000   0.00000
-11.57315   0.00000   0.00000   0.00000   0.00000
-11.52305   0.00000   0.00000   0.00000   0.00000
-11.47295   0.00000   0.00000   0.00000   0.00000
-11.42285   0.00000   0.00000   0.00000   0.00000
-11.37275   0.00000   0.00000   0.00000   0.00000
-11.32265   0.00000   0.00000   0.00000   0.00000
-11.27255   0.00000   0.00000   0.00000   0.00000
-11.22244   0.00000   0.00000   0.00000   0.00000
-11.17234   0.00000   0.00000   0.00000   0.00000
-11.12224   0.00000   0.00000   0.00000   0.00000
-11.07214   0.00000   0.00000   0.00000   0.00000
-11.02204   0.00000   0.00000   0.00000   0.00000
-10.97194   0.00000   0.00000   0.00000   0.00000
-10.92184   0.00000   0.00000   0.00000   0.00000
-10.87174   0.00000   0.00000   0.00000   0.00000
-10.82164   0.00000   0.00000   0.00000   0.00000
-10.77154   0.00000   0.00000   0.00000   0.00000
-10.72144   0.00000   0.00000   0.00000   0.00000
-10.67134   0.00000   0.00000   0.00000   0.00000
-10.62124   0.00000   0.00000   0.00000   0.00000
-10.57114   0.00000   0.00000   0.00000   0.00000
-10.52104   0.00000   0.00000   0.00000   0.00000
-10.47094   0.00000   0.00000   0.00000   0.00000
-10.42084   0.00000   0.00000   0.00000   0.00000
-10.37074   0.00000   0.00000   0.00000   0.00000
-10.32064   0.00000   0.00000   0.00000   0.00000
-10.27054   0.00000   0.00000   0.00000   0.00000
-10.22044   0.00000   0.00000   0.00000   0.00000
-10.17034   0.00000   0.00000   0.00000   0.00000
-10.12024   0.00000   0.00000   0.00000   0.00000
-10.07014   0.00000   0.00000   0.00000   0.00000
-10.02004   0.00000   0.00000   0.00000   0.00000
 -9.96994   0.00000   0.00000   0.00000   0.00000
 -9.91984   0.00000   0.00000   0.00000   0.00000
 -9.86974   0.00000   0.00000   0.00000   0.00000
 -9.81964   0.00000   0.00000   0.00000   0.00000
 -9.76954   0.00349   0.00397   0.00017   0.00397
 -9.71944   0.00770   0.00458   0.00043   0.00458
 -9.66934   0.01290   0.00643   0.00074   0.00643
 -9.61924   0.02445   0.00974   0.00159   0.00974
 -9.56914   0.07753   0.01981   0.00522   0.01981
 -9.51904   0.10913   0.02113   0.00764   0.02113
 -9.46894   0.14195   0.02450   0.01048   0.02450
 -9.41884   0.12751   0.01693   0.00905   0.01693
 -9.36874   0.07905   0.00594   0.00606   0.00594
 -9.31864   0.04309   0.00246   0.00372   0.00246
 -9.26854   0.01877   0.00195   0.00174   0.00195
 -9.21844   0.00446   0.00181   0.00051   0.00181
 -9.16834   0.00244   0.00195   0.00034   0.00195
 -9.11824   0.00264   0.00215   0.00037   0.00215
 -9.06814   0.00284   0.00235   0.00040   0.00235
 -9.01804   0.00304   0.00255   0.00044   0.00255
 -8.96794   0.00325   0.00276   0.00047   0.00276
 -8.91784   0.00359   0.00330   0.00055   0.00330
 -8.86774   0.00577   0.00666   0.00093   0.00666
 -8.81764   0.00745   0.00853   0.00112   0.00853
 -8.76754   0.00837   0.00945   0.00127   0.00945
 -8.71743   0.00931   0.01039   0.00142   0.01039
 -8.66733   0.00984   0.00995   0.00144   0.00995
 -8.61723   0.00789   0.00524   0.00122   0.00524
 -8.56713   0.00709   0.00378   0.00123   0.00378
 -8.51703   0.00723   0.00369   0.00127   0.00369
 -8.46693   0.00737   0.00361   0.00130   0.00361
 -8.41683   0.00750   0.00352   0.00133   0.00352
 -8.36673   0.00763   0.00343   0.00136   0.00343
 -8.31663   0.00774   0.00334   0.00139   0.00334
 -8.26653   0.00786   0.00325   0.00142   0.00325
 -8.21643   0.00796   0.00316   0.00145   0.00316
 -8.16633   0.00806   0.00306   0.00147   0.00306
 -8.11623   0.00815   0.00297   0.00150   0.00297
 -8.06613   0.00824   0.00288   0.00152   0.00288
 -8.01603   0.00832   0.00279   0.00155   0.00279
 -7.96593   0.00842   0.00270   0.00157   0.00270
 -7.91583   0.00875   0.00263   0.00166   0.00263
 -7.86573   0.00935   0.00258   0.00180   0.00258
 -7.81563   0.01024   0.00255   0.00201   0.00255
 -7.76553   0.01118   0.00253   0.00223   0.00253
 -7.71543   0.01212   0.00250   0.00245   0.00250
 -7.66533   0.01308   0.00247   0.00268   0.00247
 -7.61523   0.01404   0.00244   0.00290   0.00244
 -7.56513   0.01492   0.00234   0.00311   0.00234
 -7.51503   0.01518   0.00203   0.00319   0.00203
 -7.46493   0.01493   0.00176   0.00319   0.00176
 -7.41483   0.01398   0.00143   0.00310   0.00143
 -7.36473   0.01271   0.00121   0.00287   0.00121
 -7.31463   0.01144   0.00105   0.00259   0.00105
 -7.26453   0.01013   0.00089   0.00231   0.00089
 -7.21443   0.00879   0.00074   0.00201   0.00074
 -7.16433   0.00741   0.00059   0.00171   0.00059
 -7.11423   0.00600   0.00046   0.00139   0.00046
 -7.06413   0.00456   0.00033   0.00106   0.00033
 -7.01403   0.00309   0.00021   0.00072   0.00021
 -6.96393   0.00176   0.00011   0.00041   0.00011
 -6.91383   0.00082   0.00005   0.00019   0.00005
 -6.86373   0.00019   0.00001   0.00004   0.00001
 -6.81363   0.00000   0.00000   0.00000   0.00000
 -6.76353   0.00000   0.00000   0.00000   0.00000
 -6.71343   0.00000   0.00000   0.00000   0.00000
 -6.66333   0.00000   0.00000   0.00000   0.00000
 -6.61323   0.00000   0.00000   0.00000   0.00000
 -6.56313   0.00000   0.00000   0.00000   0.00000
 -6.51303   0.00000   0.00000   0.00000   0.00000
 -6.46293   0.00000   0.00000   0.00000   0.00000
 -6.41283   0.00000   0.00000   0.00000   0.00000
 -6.36273   0.00000   0.00000   0.00000   0.00000
 -6.31263   0.00000   0.00000   0.00000   0.00000
 -6.26253   0.00000   0.00000   0.00000   0.00000
 -6.21242   0.00000   0.00000   0.00000   0.00000
 -6.16232   0.00000   0.00000   0.00000   0.00000
 -6.11222   0.00000   0.00000   0.00000   0.00000
 -6.06212   0.00000   0.00000   0.00000   0.00000
 -6.01202   0.00000   0.00000   0.00000   0.00000
 -5.96192   0.00000   0.00000   0.00000   0.00000
 -5.91182   0.00000   0.00000   0.00000   0.00000
 -5.86172   0.00000   0.00000   0.00000   0.00000
 -5.81162   0.00000   0.00000   0.00000   0.00000
 -5.76152   0.00000   0.00000   0.00000   0.00000
 -5.71142   0.00000   0.00000   0.00000   0.00000
 -5.66132   0.00000   0.00000   0.00000   0.00000
 -5.61122   0.00000   0.00000   0.00000   0.00000
 -5.56112   0.00000   0.00000   0.00000   0.00000
 -5.51102   0.00000   0.00000   0.00000   0.00000
 -5.46092   0.00000   0.00000   0.00000   0.00000
 -5.41082   0.00000   0.00000   0.00000   0.00000
 -5.36072   0.00000   0.00000   0.00000   0.00000
 -5.31062   0.00000   0.00000   0.00000   0.00000
 -5.26052   0.00000   0.00000   0.00000   0.00000
 -5.21042   0.00000   0.00000   0.00000   0.00000
 -5.16032   0.00000   0.00000   0.00000   0.00000
 -5.11022   0.00000   0.00000   0.00000   0.00000
 -5.06012   0.00000   0.00000   0.00000   0.00000
 -5.01002   0.00000   0.00000   0.00000   0.00000
 -4.95992   0.00000   0.00000   0.00000   0.00000
 -4.90982   0.00000   0.00000   0.00000   0.00000
 -4.85972   0.00000   0.00000   0.00000   0.00000
 -4.80962   0.00000   0.00000   0.00000   0.00000
 -4.75952   0.00035   0.00062   0.00188   0.00062
 -4.70942   0.04293   0.15363   0.24667   0.15346
 -4.65932   0.04474   0.13098   0.20126   0.13029
 -4.60922   0.03416   0.06293   0.16357   0.06161
 -4.55912   0.02327   0.02622   0.13239   0.02416
 -4.50902   0.02250   0.02390   0.13639   0.02098
 -4.45892   0.02407   0.02920   0.15618   0.02525
 -4.40882   0.01819   0.02232   0.11928   0.02181
 -4.35872   0.01269   0.06471   0.08891   0.06628
 -4.30862   0.01141   0.07320   0.08264   0.07513
 -4.25852   0.01017   0.10605   0.07979   0.10822
 -4.20842   0.00912   0.15419   0.09107   0.15540
 -4.15832   0.00830   0.17548   0.11037   0.17638
 -4.10822   0.00601   0.12935   0.08036   0.13014
 -4.05812   0.00379   0.10553   0.06263   0.10622
 -4.00802   0.00173   0.09129   0.04796   0.09188
 -3.95792   0.00147   0.08602   0.04697   0.08652
 -3.90782   0.00143   0.08086   0.04775   0.08127
 -3.85772   0.00140   0.07569   0.04862   0.07602
 -3.80762   0.00137   0.07052   0.04957   0.07077
 -3.75752   0.00134   0.06534   0.05060   0.06551
 -3.70741   0.00132   0.06016   0.05170   0.06026
 -3.65731   0.00140   0.08191   0.06303   0.08194
 -3.60721   0.00117   0.07447   0.04914   0.07447
 -3.55711   0.00081   0.05320   0.02679   0.05320
 -3.50701   0.00068   0.05338   0.01767   0.05337
 -3.45691   0.00109   0.07190   0.02314   0.07189
 -3.40681   0.00167   0.09455   0.03286   0.09454
 -3.35671   0.00249   0.14647   0.04890   0.14645
 -3.30661   0.00460   0.17612   0.07892   0.17608
 -3.25651   0.00576   0.22138   0.09954   0.22132
 -3.20641   0.00668   0.26381   0.11765   0.26375
 -3.15631   0.00740   0.29514   0.13445   0.29505
 -3.10621   0.00577   0.23951   0.10676   0.23945
 -3.05611   0.00338   0.17440   0.09476   0.17439
 -3.00601   0.00969   0.48363   0.17025   0.48372
 -2.95591   0.01470   0.65880   0.22995   0.65893
 -2.90581   0.01102   0.55239   0.21848   0.55246
 -2.85571   0.00778   0.37972   0.17567   0.37979
 -2.80561   0.00634   0.31704   0.16001   0.31723
 -2.75551   0.00582   0.28959   0.16019   0.28994
 -2.70541   0.00516   0.25863   0.15782   0.25915
 -2.65531   0.00455   0.23086   0.16116   0.23155
 -2.60521   0.00405   0.20732   0.16711   0.20819
 -2.55511   0.00401   0.20274   0.18082   0.20379
 -2.50501   0.00445   0.26418   0.27394   0.26542
 -2.45491   0.00508   0.21067   0.28815   0.21211
 -2.40481   0.00566   0.24223   0.33788   0.24387
 -2.35471   0.00704   0.33988   0.48946   0.34158
 -2.30461   0.00707   0.39393   0.51656   0.39533
 -2.25451   0.00594   0.28757   0.36219   0.28847
 -2.20441   0.00596   0.26173   0.29425   0.26214
 -2.15431   0.00613   0.27000   0.27251   0.27169
 -2.10421   0.00596   0.27348   0.25170   0.27362
 -2.05411   0.00584   0.27757   0.23504   0.27251
 -2.00401   0.00613   0.41458   0.34872   0.40756
 -1.95391   0.00554   0.33314   0.27332   0.32510
 -1.90381   0.00426   0.31752   0.27606   0.31052
 -1.85371   0.00388   0.33020   0.31431   0.32492
 -1.80361   0.00376   0.39661   0.40299   0.39416
 -1.75351   0.00365   0.47164   0.46598   0.47645
 -1.70341   0.00223   0.42387   0.32945   0.43151
 -1.65331   0.00126   0.30687   0.20033   0.31338
 -1.60321   0.00115   0.28912   0.18033   0.29135
 -1.55311   0.00133   0.30012   0.22558   0.30104
 -1.50301   0.00160   0.37157   0.29088   0.37302
 -1.45291   0.00251   0.73381   0.47156   0.73570
 -1.40281   0.00302   1.18716   0.54901   1.17386
 -1.35271   0.00230   1.15730   0.51546   1.13135
 -1.30261   0.00230   1.09968   0.57560   1.09337
 -1.25251   0.00252   1.10087   0.67453   1.11093
 -1.20240   0.00287   1.07744   0.83479   1.09452
 -1.15230   0.00303   0.84418   0.86421   0.85509
 -1.10220   0.00206   0.68356   0.68136   0.68951
 -1.05210   0.00094   0.64696   0.79175   0.65866
 -1.00200   0.00177   1.97238   1.53926   2.00341
 -0.95190   0.00315   1.78225   2.14971   1.81372
 -0.90180   0.00345   0.83003   2.77826   0.83811
 -0.85170   0.00223   0.86114   2.34154   0.81504
 -0.80160   0.00167   0.45526   1.95065   0.43816
 -0.75150   0.00168   0.41137   1.93721   0.39908
 -0.70140   0.00172   0.38862   1.50063   0.38195
 -0.65130   0.00158   0.40095   1.09513   0.39816
 -0.60120   0.00179   0.46784   0.81168   0.46740
 -0.55110   0.00332   0.84916   1.45258   0.84922
 -0.50100   0.00391   0.95658   1.03003   0.95664
 -0.45090   0.00371   0.89467   0.63412   0.89467
 -0.40080   0.00441   0.93953   0.50878   0.93949
 -0.35070   0.00394   0.81442   0.35452   0.81440
 -0.30060   0.00235   0.54517   0.19326   0.54515
 -0.25050   0.00107   0.37182   0.10006   0.37179
 -0.20040   0.00065   0.27528   0.06582   0.27524
 -0.15030   0.00036   0.19971   0.04437   0.19967
 -0.10020   0.00017   0.13245   0.02721   0.13243
 -0.05010   0.00005   0.05969   0.01104   0.05968
 -0.00000   0.00000   0.00000   0.00000   0.00000
  0.05010   0.00000   0.00000   0.00000   0.00000
  0.10020   0.00000   0.00000   0.00000   0.00000
  0.15030   0.00000   0.00000   0.00000   0.00000
  0.20040   0.00000   0.00000   0.00000   0.00000
  0.25050   0.00000   0.00000   0.00000   0.00000
  0.30060   0.00000   0.00000   0.00000   0.00000
  0.35070   0.00000   0.00000   0.00000   0.00000
  0.40080   0.00000   0.00000   0.00000   0.00000
  0.45090   0.00000   0.00000   0.00000   0.00000
  0.50100   0.00000   0.00000   0.00000   0.00000
  0.55110   0.00000   0.00000   0.00000   0.00000
  0.60120   0.00000   0.00000   0.00000   0.00000
  0.65130   0.00000   0.00000   0.00000   0.00000
  0.70140   0.00000   0.00000   0.00000   0.00000
  0.75150   0.00000   0.00000   0.00000   0.00000
  0.80160   0.00000   0.00000   0.00000   0.00000
  0.85170   0.00000   0.00000   0.00000   0.00000
  0.90180   0.00000   0.00000   0.00000   0.00000
  0.95190   0.00000   0.00000   0.00000   0.00000
  1.00200   0.00000   0.00000   0.00000   0.00000
  1.05210   0.00000   0.00000   0.00000   0.00000
  1.10220   0.00000   0.00000   0.00000   0.00000
  1.15230   0.00000   0.00000   0.00000   0.00000
  1.20240   0.00000   0.00000   0.00000   0.00000
  1.25251   0.00000   0.00000   0.00000   0.00000
  1.30261   0.00000   0.00000   0.00000   0.00000
  1.35271   0.00000   0.00000   0.00000   0.00000
  1.40281   0.00000   0.00000   0.00000   0.00000
  1.45291   0.00000   0.00000   0.00000   0.00000
  1.50301   0.00000   0.00000   0.00000   0.00000
  1.55311   0.00000   0.00000   0.00000   0.00000
  1.60321   0.00000   0.00000   0.00000   0.00000
  1.65331   0.00000   0.00000   0.00000   0.00000
  1.70341   0.00000   0.00000   0.00000   0.00000
  1.75351   0.00000   0.00000   0.00000   0.00000
  1.80361   0.00000   0.00000   0.00000   0.00000
  1.85371   0.00000   0.00000   0.00000   0.00000
  1.90381   0.00000   0.00000   0.00000   0.00000
  1.95391   0.00000   0.00000   0.00000   0.00000
  2.00401   0.00000   0.00000   0.00000   0.00000
  2.05411   0.00000   0.00000   0.00000   0.00000
  2.10421   0.00000   0.00000   0.00000   0.00000
  2.15431   0.00000   0.00000   0.00000   0.00000
  2.20441   0.00000   0.00000   0.00000   0.00000
  2.25451   0.00000   0.00000   0.00000   0.00000
  2.30461   0.00000   0.00000   0.00000   0.00000
  2.35471   0.00000   0.00000   0.00000   0.00000
  2.40481   0.00000   0.00000   0.00000   0.00000
  2.45491   0.00000   0.00000   0.00000   0.00000
  2.50501   0.00000   0.00000   0.00000   0.00000
  2.55511   0.00000   0.00000   0.00000   0.00000
  2.60521   0.00000   0.00000   0.00000   0.00000
  2.65531   0.00001   0.00003   0.00003   0.00003
  2.70541   0.00003   0.00006   0.00009   0.00006
  2.75551   0.00006   0.00010   0.00016   0.00010
  2.80561   0.00009   0.00015   0.00024   0.00015
  2.85571   0.00013   0.00021   0.00035   0.00021
  2.90581   0.00019   0.00027   0.00051   0.00027
  2.95591   0.00027   0.00035   0.00071   0.00035
  3.00601   0.00036   0.00043   0.00096   0.00043
  3.05611   0.00049   0.00053   0.00123   0.00053
  3.10621   0.00065   0.00066   0.00152   0.00066
  3.15631   0.00081   0.00079   0.00182   0.00079
  3.20641   0.00099   0.00094   0.00214   0.00094
  3.25651   0.00119   0.00109   0.00248   0.00109
  3.30661   0.00139   0.00126   0.00283   0.00126
  3.35671   0.00160   0.00145   0.00319   0.00145
  3.40681   0.00183   0.00164   0.00357   0.00164
  3.45691   0.00206   0.00185   0.00399   0.00185
  3.50701   0.00232   0.00208   0.00449   0.00208
  3.55711   0.00259   0.00234   0.00509   0.00234
  3.60721   0.00288   0.00262   0.00579   0.00262
  3.65731   0.00343   0.00423   0.00758   0.00423
  3.70741   0.00543   0.00890   0.01450   0.00890
  3.75752   0.01182   0.02035   0.03571   0.02035
  3.80762   0.01434   0.02908   0.04331   0.02908
  3.85772   0.01610   0.03457   0.04944   0.03457
  3.90782   0.01954   0.05010   0.05881   0.05010
  3.95792   0.02158   0.04662   0.07218   0.04662
  4.00802   0.02171   0.05048   0.08274   0.05048
  4.05812   0.02150   0.05113   0.09120   0.05113
  4.10822   0.02080   0.03907   0.08256   0.03907
  4.15832   0.01951   0.02430   0.06629   0.02430
  4.20842   0.01827   0.01661   0.05232   0.01661
  4.25852   0.01736   0.01226   0.04189   0.01226
  4.30862   0.01720   0.01216   0.03887   0.01216
  4.35872   0.01686   0.01202   0.03571   0.01202
  4.40882   0.01566   0.01386   0.03101   0.01386
  4.45892   0.00770   0.02881   0.01363   0.02881
  4.50902   0.00825   0.03801   0.01450   0.03801
  4.55912   0.01112   0.05739   0.01826   0.05739
  4.60922   0.01439   0.08155   0.02304   0.08155
  4.65932   0.02716   0.15274   0.04956   0.15274
  4.70942   0.01796   0.09626   0.03953   0.09626
  4.75952   0.01437   0.05177   0.03514   0.05181
  4.80962   0.01447   0.04501   0.04381   0.04547
  4.85972   0.01431   0.04524   0.05214   0.04632
  4.90982   0.01044   0.03925   0.04369   0.04103
  4.95992   0.00834   0.03301   0.03744   0.03537
  5.01002   0.00758   0.02902   0.03400   0.03182
      5.01002004     -20.04008016   501       4.58027970       1.00000000; Z=  8; 2s 2p_y 2p_z 2p_x 
-20.04008   0.00000   0.00000   0.00000   0.00000
-19.98998   0.00000   0.00000   0.00000   0.00000
-19.93988   0.00000   0.00000   0.00000   0.00000
-19.88978   0.00000   0.00000   0.00000   0.00000
-19.83968   0.00000   0.00000   0.00000   0.00000
-19.78958   0.00000   0.00000   0.00000   0.00000
-19.73948   0.00000   0.00000   0.00000   0.00000
-19.68938   0.00000   0.00000   0.00000   0.00000
-19.63928   0.00000   0.00000   0.00000   0.00000
-19.58918   0.00000   0.00000   0.00000   0.00000
-19.53908   0.00000   0.00000   0.00000   0.00000
-19.48898   0.00000   0.00000   0.00000   0.00000
-19.43888   0.00000   0.00000   0.00000   0.00000
-19.38878   0.00000   0.00000   0.00000   0.00000
-19.33868   0.00000   0.00000   0.00000   0.00000
-19.28858   0.00000   0.00000   0.00000   0.00000
-19.23848   0.00000   0.00000   0.00000   0.00000
-19.18838   0.00000   0.00000   0.00000   0.00000
-19.13828   0.00000   0.00000   0.00000   0.00000
-19.08818   0.00000   0.00000   0.00000   0.00000
-19.03808   0.00000   0.00000   0.00000   0.00000
-18.98798   0.00000   0.00000   0.00000   0.00000
-18.93788   0.00000   0.00000   0.00000   0.00000
-18.88778   0.00000   0.00000   0.00000   0.00000
-18.83768   0.00000   0.00000   0.00000   0.00000
-18.78758   0.00000   0.00000   0.00000   0.00000
-18.73747   0.00000   0.00000   0.00000   0.00000
-18.68737   0.00000   0.00000   0.00000   0.00000
-18.63727   0.00000   0.00000   0.00000   0.00000
-18.58717   0.00000   0.00000   0.00000   0.00000
-18.53707   0.00000   0.00000   0.00000   0.00000
-18.48697   0.00000   0.00000   0.00000   0.00000
-18.43687   0.01478   0.00001   0.00000   0.00001
-18.38677   0.08897   0.00007   0.00000   0.00007
-18.33667   0.16948   0.00014   0.00000   0.00014
-18.28657   0.25006   0.00021   0.00000   0.00021
-18.23647   0.33070   0.00030   0.00000   0.00030
-18.18637   0.41364   0.00041   0.00000   0.00041
-18.13627   0.45029   0.00058   0.00000   0.00058
-18.08617   0.42902   0.00061   0.00000   0.00061
-18.03607   0.40775   0.00063   0.00000   0.00063
-17.98597   0.38647   0.00065   0.00000   0.00065
-17.93587   0.36585   0.00067   0.00001   0.00067
-17.88577   0.37152   0.00071   0.00001   0.00071
-17.83567   0.39105   0.00077   0.00001   0.00077
-17.78557   0.41062   0.00082   0.00001   0.00082
-17.73547   0.43024   0.00087   0.00001   0.00087
-17.68537   0.44991   0.00093   0.00001   0.00093
-17.63527   0.46962   0.00098   0.00001   0.00098
-17.58517   0.48938   0.00103   0.00001   0.00103
-17.53507   0.50919   0.00109   0.00001   0.00109
-17.48497   0.60910   0.00136   0.00002   0.00136
-17.43487   1.19910   0.00296   0.00005   0.00296
-17.38477   1.11108   0.00269   0.00004   0.00269
-17.33467   1.02283   0.00243   0.00003   0.00243
-17.28457   0.73394   0.00153   0.00002   0.00153
-17.23447   0.57679   0.00105   0.00001   0.00105
-17.18437   0.54115   0.00094   0.00001   0.00094
-17.13427   0.50538   0.00084   0.00001   0.00084
-17.08417   0.46948   0.00075   0.00001   0.00075
-17.03407   0.43346   0.00065   0.00000   0.00065
-16.98397   0.39732   0.00056   0.00000   0.00056
-16.93387   0.36105   0.00047   0.00000   0.00047
-16.88377   0.71461   0.00065   0.00000   0.00065
-16.83367   0.00000   0.00000   0.00000   0.00000
-16.78357   0.00000   0.00000   0.00000   0.00000
-16.73347   0.00000   0.00000   0.00000   0.00000
-16.68337   0.00000   0.00000   0.00000   0.00000
-16.63327   4.55468   0.00562   0.00028   0.00562
-16.58317   3.45494   0.00410   0.00017   0.00410
-16.53307   0.97440   0.00114   0.00005   0.00114
-16.48297   0.91820   0.00105   0.00005   0.00105
-16.43287   0.86182   0.00095   0.00005   0.00095
-16.38277   0.80525   0.00086   0.00004   0.00086
-16.33267   0.74850   0.00077   0.00004   0.00077
-16.28257   0.69156   0.00068   0.00003   0.00068
-16.23246   0.63444   0.00060   0.00003   0.00060
-16.18236   0.60106   0.00052   0.00003   0.00052
-16.13226   0.80227   0.00049   0.00003   0.00049
-16.08216   1.02384   0.00046   0.00003   0.00046
-16.03206   0.75196   0.00025   0.00002   0.00025
-15.98196   0.50170   0.00015   0.00001   0.00015
-15.93186   0.25045   0.00007   0.00001   0.00007
-15.88176   0.03070   0.00001   0.00000   0.00001
-15.83166   0.00000   0.00000   0.00000   0.00000
-15.78156   0.00000   0.00000   0.00000   0.00000
-15.73146   0.00000   0.00000   0.00000   0.00000
-15.68136   0.00000   0.00000   0.00000   0.00000
-15.63126   0.00000   0.00000   0.00000   0.00000
-15.58116   0.00000   0.00000   0.00000   0.00000
-15.53106   0.00000   0.00000   0.00000   0.00000
-15.48096   0.00000   0.00000   0.00000   0.00000
-15.43086   0.00000   0.00000   0.00000   0.00000
-15.38076   0.00000   0.00000   0.00000   0.00000
-15.33066   0.00000   0.00000   0.00000   0.00000
-15.28056   0.00000   0.00000   0.00000   0.00000
-15.23046   0.00000   0.00000   0.00000   0.00000
-15.18036   0.00000   0.00000   0.00000   0.00000
-15.13026   0.00000   0.00000   0.00000   0.00000
-15.08016   0.00000   0.00000   0.00000   0.00000
-15.03006   0.00000   0.00000   0.00000   0.00000
-14.97996   0.00000   0.00000   0.00000   0.00000
-14.92986   0.00000   0.00000   0.00000   0.00000
-14.87976   0.00000   0.00000   0.00000   0.00000
-14.82966   0.00000   0.00000   0.00000   0.00000
-14.77956   0.00000   0.00000   0.00000   0.00000
-14.72946   0.00000   0.00000   0.00000   0.00000
-14.67936   0.00000   0.00000   0.00000   0.00000
-14.62926   0.00000   0.00000   0.00000   0.00000
-14.57916   0.00000   0.00000   0.00000   0.00000
-14.52906   0.00000   0.00000   0.00000   0.00000
-14.47896   0.00000   0.00000   0.00000   0.00000
-14.42886   0.00000   0.00000   0.00000   0.00000
-14.37876   0.00000   0.00000   0.00000   0.00000
-14.32866   0.00000   0.00000   0.00000   0.00000
-14.27856   0.00000   0.00000   0.00000   0.00000
-14.22846   0.00000   0.00000   0.00000   0.00000
-14.17836   0.00000   0.00000   0.00000   0.00000
-14.12826   0.00000   0.00000   0.00000   0.00000
-14.07816   0.00000   0.00000   0.00000   0.00000
-14.02806   0.00000   0.00000   0.00000   0.00000
-13.97796   0.00000   0.00000   0.00000   0.00000
-13.92786   0.00000   0.00000   0.00000   0.00000
-13.87776   0.00000   0.00000   0.00000   0.00000
-13.82766   0.00008   0.00000   0.00027   0.00000
-13.77756   0.00053   0.00000   0.00117   0.00000
-13.72745   0.00168   0.00000   0.00248   0.00000
-13.67735   0.00445   0.00001   0.00363   0.00001
-13.62725   0.00819   0.00003   0.00392   0.00003
-13.57715   0.01090   0.00005   0.00353   0.00005
-13.52705   0.01077   0.00008   0.00310   0.00008
-13.47695   0.01021   0.00010   0.00292   0.00010
-13.42685   0.01099   0.00013   0.00301   0.00013
-13.37675   0.01381   0.00018   0.00466   0.00018
-13.32665   0.02517   0.00035   0.00749   0.00035
-13.27655   0.02948   0.00054   0.00724   0.00054
-13.22645   0.04457   0.00078   0.00738   0.00078
-13.17635   0.07304   0.00149   0.00639   0.00149
-13.12625   0.02826   0.00180   0.00173   0.00180
-13.07615   0.00378   0.00060   0.00014   0.00060
-13.02605   0.00000   0.00000   0.00000   0.00000
-12.97595   0.00000   0.00000   0.00000   0.00000
-12.92585   0.00000   0.00000   0.00000   0.00000
-12.87575   0.00000   0.00000   0.00000   0.00000
-12.82565   0.00000   0.00000   0.00000   0.00000
-12.77555   0.00000   0.00000   0.00000   0.00000
-12.72545   0.00000   0.00000   0.00000   0.00000
-12.67535   0.00000   0.00000   0.00000   0.00000
-12.62525   0.00000   0.00000   0.00000   0.00000
-12.57515   0.00000   0.00000   0.00000   0.00000
-12.52505   0.00000   0.00000   0.00000   0.00000
-12.47495   0.00000   0.00000   0.00000   0.00000
-12.42485   0.00000   0.00000   0.00000   0.00000
-12.37475   0.00000   0.00000   0.00000   0.00000
-12.32465   0.00000   0.00000   0.00000   0.00000
-12.27455   0.00000   0.00000   0.00000   0.00000
-12.22445   0.00000   0.00000   0.00000   0.00000
-12.17435   0.00000   0.00000   0.00000   0.00000
-12.12425   0.00000   0.00000   0.00000   0.00000
-12.07415   0.00000   0.00000   0.00000   0.00000
-12.02405   0.00000   0.00000   0.00000   0.00000
-11.97395   0.00000   0.00000   0.00000   0.00000
-11.92385   0.00000   0.00000   0.00000   0.00000
-11.87375   0.00000   0.00000   0.00000   0.00000
-11.82365   0.00000   0.00000   0.00000   0.00000
-11.77355   0.00000   0.00000   0.00000   0.00000
-11.72345   0.00000   0.00000   0.00000   0.00000
-11.67335   0.00000   0.00000   0.00000   0.00000
-11.62325   0.00000   0.00000   0.00000   0.00000
-11.57315   0.00000   0.00000   0.00000   0.00000
-11.52305   0.00000   0.00000   0.00000   0.00000
-11.47295   0.00000   0.00000   0.00000   0.00000
-11.42285   0.00000   0.00000   0.00000   0.00000
-11.37275   0.00000   0.00000   0.00000   0.00000
-11.32265   0.00000   0.00000   0.00000   0.00000
-11.27255   0.00000   0.00000   0.00000   0.00000
-11.22244   0.00000   0.00000   0.00000   0.00000
-11.17234   0.00000   0.00000   0.00000   0.00000
-11.12224   0.00000   0.00000   0.00000   0.00000
-11.07214   0.00000   0.00000   0.00000   0.00000
-11.02204   0.00000   0.00000   0.00000   0.00000
-10.97194   0.00000   0.00000   0.00000   0.00000
-10.92184   0.00000   0.00000   0.00000   0.00000
-10.87174   0.00000   0.00000   0.00000   0.00000
-10.82164   0.00000   0.00000   0.00000   0.00000
-10.77154   0.00000   0.00000   0.00000   0.00000
-10.72144   0.00000   0.00000   0.00000   0.00000
-10.67134   0.00000   0.00000   0.00000   0.00000
-10.62124   0.00000   0.00000   0.00000   0.00000
-10.57114   0.00000   0.00000   0.00000   0.00000
-10.52104   0.00000   0.00000   0.00000   0.00000
-10.47094   0.00000   0.00000   0.00000   0.00000
-10.42084   0.00000   0.00000   0.00000   0.00000
-10.37074   0.00000   0.00000   0.00000   0.00000
-10.32064   0.00000   0.00000   0.00000   0.00000
-10.27054   0.00000   0.00000   0.00000   0.00000
-10.22044   0.00000   0.00000   0.00000   0.00000
-10.17034   0.00000   0.00000   0.00000   0.00000
-10.12024   0.00000   0.00000   0.00000   0.00000
-10.07014   0.00000   0.00000   0.00000   0.00000
-10.02004   0.00000   0.00000   0.00000   0.00000
 -9.96994   0.00000   0.00000   0.00000   0.00000
 -9.91984   0.00000   0.00000   0.00000   0.00000
 -9.86974   0.00000   0.00000   0.00000   0.00000
 -9.81964   0.00000   0.00000   0.00000   0.00000
 -9.76954   0.00579   0.11885   0.02770   0.11885
 -9.71944   0.01147   0.07482   0.03316   0.07482
 -9.66934   0.01704   0.08687   0.04798   0.08687
 -9.61924   0.02633   0.10475   0.07683   0.10475
 -9.56914   0.05831   0.13242   0.17817   0.13242
 -9.51904   0.06705   0.10698   0.21266   0.10698
 -9.46894   0.10793   0.18466   0.24728   0.18466
 -9.41884   0.06881   0.09084   0.20396   0.09084
 -9.36874   0.02976   0.04381   0.10368   0.04381
 -9.31864   0.01906   0.02866   0.05007   0.02866
 -9.26854   0.02026   0.02656   0.02153   0.02656
 -9.21844   0.02187   0.02589   0.00478   0.02589
 -9.16834   0.02386   0.02653   0.00247   0.02653
 -9.11824   0.02594   0.02737   0.00276   0.02737
 -9.06814   0.02806   0.02819   0.00306   0.02819
 -9.01804   0.03022   0.02898   0.00337   0.02898
 -8.96794   0.03243   0.02975   0.00369   0.02975
 -8.91784   0.03748   0.03131   0.00456   0.03131
 -8.86774   0.06688   0.03952   0.01039   0.03952
 -8.81764   0.08246   0.04263   0.01376   0.04263
 -8.76754   0.08946   0.04294   0.01542   0.04294
 -8.71743   0.09655   0.04316   0.01712   0.04316
 -8.66733   0.09274   0.03922   0.01637   0.03922
 -8.61723   0.05491   0.02304   0.00758   0.02304
 -8.56713   0.04337   0.01793   0.00473   0.01793
 -8.51703   0.04283   0.01720   0.00453   0.01720
 -8.46693   0.04228   0.01648   0.00433   0.01648
 -8.41683   0.04172   0.01577   0.00413   0.01577
 -8.36673   0.04115   0.01506   0.00394   0.01506
 -8.31663   0.04056   0.01436   0.00374   0.01436
 -8.26653   0.03995   0.01367   0.00355   0.01367
 -8.21643   0.03934   0.01298   0.00336   0.01298
 -8.16633   0.03871   0.01230   0.00318   0.01230
 -8.11623   0.03807   0.01162   0.00300   0.01162
 -8.06613   0.03741   0.01095   0.00282   0.01095
 -8.01603   0.03674   0.01029   0.00264   0.01029
 -7.96593   0.03612   0.00964   0.00246   0.00964
 -7.91583   0.03614   0.00912   0.00227   0.00912
 -7.86573   0.03690   0.00874   0.00207   0.00874
 -7.81563   0.03836   0.00847   0.00186   0.00847
 -7.76553   0.03992   0.00821   0.00165   0.00821
 -7.71543   0.04148   0.00794   0.00146   0.00794
 -7.66533   0.04305   0.00764   0.00127   0.00764
 -7.61523   0.04461   0.00733   0.00110   0.00733
 -7.56513   0.04549   0.00680   0.00092   0.00680
 -7.51503   0.04382   0.00575   0.00074   0.00575
 -7.46493   0.04145   0.00485   0.00061   0.00485
 -7.41483   0.03732   0.00374   0.00049   0.00374
 -7.36473   0.03344   0.00315   0.00042   0.00315
 -7.31463   0.02981   0.00273   0.00036   0.00273
 -7.26453   0.02616   0.00232   0.00031   0.00232
 -7.21443   0.02249   0.00194   0.00026   0.00194
 -7.16433   0.01880   0.00157   0.00021   0.00157
 -7.11423   0.01509   0.00122   0.00016   0.00122
 -7.06413   0.01136   0.00089   0.00012   0.00089
 -7.01403   0.00760   0.00058   0.00008   0.00058
 -6.96393   0.00427   0.00032   0.00004   0.00032
 -6.91383   0.00196   0.00014   0.00002   0.00014
 -6.86373   0.00046   0.00003   0.00000   0.00003
 -6.81363   0.00001   0.00000   0.00000   0.00000
 -6.76353   0.00000   0.00000   0.00000   0.00000
 -6.71343   0.00000   0.00000   0.00000   0.00000
 -6.66333   0.00000   0.00000   0.00000   0.00000
 -6.61323   0.00000   0.00000   0.00000   0.00000
 -6.56313   0.00000   0.00000   0.00000   0.00000
 -6.51303   0.00000   0.00000   0.00000   0.00000
 -6.46293   0.00000   0.00000   0.00000   0.00000
 -6.41283   0.00000   0.00000   0.00000   0.00000
 -6.36273   0.00000   0.00000   0.00000   0.00000
 -6.31263   0.00000   0.00000   0.00000   0.00000
 -6.26253   0.00000   0.00000   0.00000   0.00000
 -6.21242   0.00000   0.00000   0.00000   0.00000
 -6.16232   0.00000   0.00000   0.00000   0.00000
 -6.11222   0.00000   0.00000   0.00000   0.00000
 -6.06212   0.00000   0.00000   0.00000   0.00000
 -6.01202   0.00000   0.00000   0.00000   0.00000
 -5.96192   0.00000   0.00000   0.00000   0.00000
 -5.91182   0.00000   0.00000   0.00000   0.00000
 -5.86172   0.00000   0.00000   0.00000   0.00000
 -5.81162   0.00000   0.00000   0.00000   0.00000
 -5.76152   0.00000   0.00000   0.00000   0.00000
 -5.71142   0.00000   0.00000   0.00000   0.00000
 -5.66132   0.00000   0.00000   0.00000   0.00000
 -5.61122   0.00000   0.00000   0.00000   0.00000
 -5.56112   0.00000   0.00000   0.00000   0.00000
 -5.51102   0.00000   0.00000   0.00000   0.00000
 -5.46092   0.00000   0.00000   0.00000   0.00000
 -5.41082   0.00000   0.00000   0.00000   0.00000
 -5.36072   0.00000   0.00000   0.00000   0.00000
 -5.31062   0.00000   0.00000   0.00000   0.00000
 -5.26052   0.00000   0.00000   0.00000   0.00000
 -5.21042   0.00000   0.00000   0.00000   0.00000
 -5.16032   0.00000   0.00000   0.00000   0.00000
 -5.11022   0.00000   0.00000   0.00000   0.00000
 -5.06012   0.00000   0.00000   0.00000   0.00000
 -5.01002   0.00000   0.00000   0.00000   0.00000
 -4.95992   0.00000   0.00000   0.00000   0.00000
 -4.90982   0.00000   0.00000   0.00000   0.00000
 -4.85972   0.00000   0.00000   0.00000   0.00000
 -4.80962   0.00000   0.00000   0.00000   0.00000
 -4.75952   0.00003   0.00503   0.00442   0.00503
 -4.70942   0.00424   0.59042   0.84295   0.58799
 -4.65932   0.00618   0.56434   0.74233   0.55354
 -4.60922   0.00759   0.48358   0.44498   0.46220
 -4.55912   0.00871   0.40462   0.24776   0.37094
 -4.50902   0.01021   0.43549   0.23216   0.38787
 -4.45892   0.01371   0.55435   0.24926   0.48863
 -4.40882   0.01182   0.37741   0.19624   0.36995
 -4.35872   0.00906   0.25148   0.29712   0.27686
 -4.30862   0.00894   0.26676   0.31055   0.29807
 -4.25852   0.00903   0.29220   0.41846   0.32741
 -4.20842   0.01077   0.31367   0.55775   0.33337
 -4.15832   0.01321   0.38609   0.53497   0.40057
 -4.10822   0.01217   0.35516   0.33206   0.36797
 -4.05812   0.01112   0.33162   0.23071   0.34281
 -4.00802   0.00984   0.30172   0.16691   0.31136
 -3.95792   0.00985   0.28674   0.15143   0.29488
 -3.90782   0.00999   0.27363   0.13961   0.28035
 -3.85772   0.01009   0.26015   0.12831   0.26550
 -3.80762   0.01013   0.24628   0.11755   0.25034
 -3.75752   0.01013   0.23205   0.10732   0.23486
 -3.70741   0.01008   0.21743   0.09762   0.21906
 -3.65731   0.01002   0.22029   0.08718   0.22088
 -3.60721   0.00712   0.17942   0.06366   0.17949
 -3.55711   0.00379   0.11730   0.04015   0.11730
 -3.50701   0.00228   0.08783   0.02808   0.08783
 -3.45691   0.00327   0.11152   0.04749   0.11152
 -3.40681   0.00476   0.14044   0.08064   0.14044
 -3.35671   0.00739   0.20156   0.12820   0.20156
 -3.30661   0.01167   0.22139   0.23686   0.22139
 -3.25651   0.01417   0.24438   0.33174   0.24438
 -3.20641   0.01602   0.25853   0.42148   0.25853
 -3.15631   0.01719   0.25941   0.48291   0.25941
 -3.10621   0.01403   0.18663   0.41841   0.18663
 -3.05611   0.01059   0.10139   0.29577   0.10139
 -3.00601   0.02380   0.19820   0.52005   0.19820
 -2.95591   0.02980   0.29924   0.67321   0.29924
 -2.90581   0.02338   0.26631   0.53270   0.26631
 -2.85571   0.01558   0.18262   0.40634   0.18263
 -2.80561   0.01262   0.14038   0.34962   0.14041
 -2.75551   0.01096   0.12535   0.32143   0.12541
 -2.70541   0.00933   0.11710   0.27697   0.11720
 -2.65531   0.00808   0.11710   0.23625   0.11723
 -2.60521   0.00712   0.12250   0.20532   0.12267
 -2.55511   0.00659   0.18371   0.20078   0.18392
 -2.50501   0.00965   0.31839   0.34265   0.31864
 -2.45491   0.00548   0.35007   0.33597   0.35035
 -2.40481   0.00647   0.42300   0.39270   0.42333
 -2.35471   0.00983   0.63373   0.55462   0.63407
 -2.30461   0.01239   0.68320   0.50510   0.68348
 -2.25451   0.00734   0.46056   0.38147   0.46072
 -2.20441   0.00572   0.36594   0.33153   0.36581
 -2.15431   0.00531   0.31072   0.29899   0.31037
 -2.10421   0.00502   0.27952   0.28461   0.27812
 -2.05411   0.00511   0.26909   0.26826   0.26564
 -2.00401   0.00612   0.28550   0.29537   0.27999
 -1.95391   0.00502   0.27051   0.25828   0.26123
 -1.90381   0.00502   0.25600   0.19649   0.24630
 -1.85371   0.00543   0.30920   0.20710   0.30040
 -1.80361   0.00643   0.48421   0.29712   0.48005
 -1.75351   0.00798   0.49666   0.33365   0.50621
 -1.70341   0.00569   0.38741   0.31724   0.40225
 -1.65331   0.00335   0.22481   0.23193   0.23679
 -1.60321   0.00307   0.14981   0.20515   0.15212
 -1.55311   0.00352   0.15782   0.16799   0.15562
 -1.50301   0.00413   0.19797   0.18048   0.19419
 -1.45291   0.00594   0.40865   0.27889   0.37666
 -1.40281   0.00650   0.61147   0.37547   0.52640
 -1.35271   0.00483   0.56847   0.34632   0.50952
 -1.30261   0.00421   0.53884   0.32661   0.54109
 -1.25251   0.00392   0.54425   0.32421   0.59278
 -1.20240   0.00381   0.64236   0.32486   0.71526
 -1.15230   0.00322   0.65707   0.26349   0.70437
 -1.10220   0.00212   0.53599   0.19427   0.55000
 -1.05210   0.00136   0.29776   0.21878   0.30180
 -1.00200   0.00149   0.74095   1.09771   0.74752
 -0.95190   0.00209   1.01279   1.44502   1.01678
 -0.90180   0.00165   0.63016   0.93982   0.62967
 -0.85170   0.00081   0.30159   0.80409   0.29522
 -0.80160   0.00079   0.19560   0.51948   0.19223
 -0.75150   0.00085   0.60343   0.43556   0.60069
 -0.70140   0.00085   0.52116   0.22033   0.51931
 -0.65130   0.00105   0.44771   0.19197   0.44682
 -0.60120   0.00153   0.43111   0.22880   0.43097
 -0.55110   0.00548   0.57776   0.40890   0.57776
 -0.50100   0.00576   0.53347   0.51695   0.53347
 -0.45090   0.00404   0.44592   0.58060   0.44592
 -0.40080   0.00359   0.39617   0.78594   0.39617
 -0.35070   0.00272   0.29923   0.76862   0.29923
 -0.30060   0.00164   0.20510   0.49450   0.20510
 -0.25050   0.00094   0.14507   0.25415   0.14507
 -0.20040   0.00063   0.10749   0.17942   0.10749
 -0.15030   0.00044   0.07883   0.11600   0.07883
 -0.10020   0.00026   0.05331   0.07009   0.05331
 -0.05010   0.00010   0.02423   0.02850   0.02423
 -0.00000   0.00000   0.00000   0.00000   0.00000
  0.05010   0.00000   0.00000   0.00000   0.00000
  0.10020   0.00000   0.00000   0.00000   0.00000
  0.15030   0.00000   0.00000   0.00000   0.00000
  0.20040   0.00000   0.00000   0.00000   0.00000
  0.25050   0.00000   0.00000   0.00000   0.00000
  0.30060   0.00000   0.00000   0.00000   0.00000
  0.35070   0.00000   0.00000   0.00000   0.00000
  0.40080   0.00000   0.00000   0.00000   0.00000
  0.45090   0.00000   0.00000   0.00000   0.00000
  0.50100   0.00000   0.00000   0.00000   0.00000
  0.55110   0.00000   0.00000   0.00000   0.00000
  0.60120   0.00000   0.00000   0.00000   0.00000
  0.65130   0.00000   0.00000   0.00000   0.00000
  0.70140   0.00000   0.00000   0.00000   0.00000
  0.75150   0.00000   0.00000   0.00000   0.00000
  0.80160   0.00000   0.00000   0.00000   0.00000
  0.85170   0.00000   0.00000   0.00000   0.00000
  0.90180   0.00000   0.00000   0.00000   0.00000
  0.95190   0.00000   0.00000   0.00000   0.00000
  1.00200   0.00000   0.00000   0.00000   0.00000
  1.05210   0.00000   0.00000   0.00000   0.00000
  1.10220   0.00000   0.00000   0.00000   0.00000
  1.15230   0.00000   0.00000   0.00000   0.00000
  1.20240   0.00000   0.00000   0.00000   0.00000
  1.25251   0.00000   0.00000   0.00000   0.00000
  1.30261   0.00000   0.00000   0.00000   0.00000
  1.35271   0.00000   0.00000   0.00000   0.00000
  1.40281   0.00000   0.00000   0.00000   0.00000
  1.45291   0.00000   0.00000   0.00000   0.00000
  1.50301   0.00000   0.00000   0.00000   0.00000
  1.55311   0.00000   0.00000   0.00000   0.00000
  1.60321   0.00000   0.00000   0.00000   0.00000
  1.65331   0.00000   0.00000   0.00000   0.00000
  1.70341   0.00000   0.00000   0.00000   0.00000
  1.75351   0.00000   0.00000   0.00000   0.00000
  1.80361   0.00000   0.00000   0.00000   0.00000
  1.85371   0.00000   0.00000   0.00000   0.00000
  1.90381   0.00000   0.00000   0.00000   0.00000
  1.95391   0.00000   0.00000   0.00000   0.00000
  2.00401   0.00000   0.00000   0.00000   0.00000
  2.05411   0.00000   0.00000   0.00000   0.00000
  2.10421   0.00000   0.00000   0.00000   0.00000
  2.15431   0.00000   0.00000   0.00000   0.00000
  2.20441   0.00000   0.00000   0.00000   0.00000
  2.25451   0.00000   0.00000   0.00000   0.00000
  2.30461   0.00000   0.00000   0.00000   0.00000
  2.35471   0.00000   0.00000   0.00000   0.00000
  2.40481   0.00000   0.00000   0.00000   0.00000
  2.45491   0.00000   0.00000   0.00000   0.00000
  2.50501   0.00000   0.00000   0.00000   0.00000
  2.55511   0.00000   0.00000   0.00000   0.00000
  2.60521   0.00002   0.00001   0.00000   0.00001
  2.65531   0.00020   0.00006   0.00000   0.00006
  2.70541   0.00045   0.00014   0.00001   0.00014
  2.75551   0.00076   0.00024   0.00001   0.00024
  2.80561   0.00114   0.00036   0.00002   0.00036
  2.85571   0.00158   0.00051   0.00002   0.00051
  2.90581   0.00212   0.00070   0.00004   0.00070
  2.95591   0.00275   0.00094   0.00005   0.00094
  3.00601   0.00347   0.00122   0.00008   0.00122
  3.05611   0.00420   0.00154   0.00016   0.00154
  3.10621   0.00492   0.00192   0.00032   0.00192
  3.15631   0.00564   0.00234   0.00050   0.00234
  3.20641   0.00636   0.00279   0.00072   0.00279
  3.25651   0.00707   0.00327   0.00096   0.00327
  3.30661   0.00777   0.00378   0.00124   0.00378
  3.35671   0.00847   0.00433   0.00155   0.00433
  3.40681   0.00917   0.00492   0.00188   0.00492
  3.45691   0.00986   0.00554   0.00226   0.00554
  3.50701   0.01055   0.00624   0.00273   0.00624
  3.55711   0.01124   0.00701   0.00327   0.00701
  3.60721   0.01194   0.00785   0.00391   0.00785
  3.65731   0.01716   0.01183   0.00482   0.01183
  3.70741   0.03513   0.02318   0.00762   0.02318
  3.75752   0.07410   0.04043   0.01488   0.04043
  3.80762   0.08362   0.04303   0.02123   0.04303
  3.85772   0.09105   0.04647   0.02629   0.04647
  3.90782   0.10979   0.05546   0.03278   0.05546
  3.95792   0.10997   0.05740   0.04167   0.05740
  4.00802   0.11073   0.05194   0.04872   0.05194
  4.05812   0.10744   0.04933   0.05452   0.04933
  4.10822   0.08806   0.04637   0.05946   0.04637
  4.15832   0.06319   0.04236   0.06334   0.04236
  4.20842   0.04573   0.03858   0.06620   0.03858
  4.25852   0.03352   0.03593   0.06844   0.03593
  4.30862   0.02954   0.03567   0.07066   0.03567
  4.35872   0.02573   0.03491   0.07207   0.03491
  4.40882   0.02246   0.03387   0.06922   0.03387
  4.45892   0.02210   0.03338   0.02782   0.03338
  4.50902   0.02904   0.04200   0.02895   0.04200
  4.55912   0.04412   0.06527   0.03863   0.06527
  4.60922   0.06433   0.09323   0.04858   0.09323
  4.65932   0.13219   0.17519   0.09556   0.17519
  4.70942   0.08522   0.11044   0.06772   0.11044
  4.75952   0.05349   0.08259   0.05780   0.08262
  4.80962   0.04520   0.07799   0.07810   0.07827
  4.85972   0.04014   0.08007   0.09601   0.08072
  4.90982   0.02648   0.06830   0.08834   0.06937
  4.95992   0.01469   0.05782   0.08843   0.05925
  5.01002   0.00710   0.05270   0.09387   0.05439
      5.01002004     -20.04008016   501       4.58027970       1.00000000; Z=  8; 2s 2p_y 2p_z 2p_x 
-20.04008   0.00000   0.00000   0.00000   0.00000
-19.98998   0.00000   0.00000   0.00000   0.00000
-19.93988   0.00000   0.00000   0.00000   0.00000
-19.88978   0.00000   0.00000   0.00000   0.00000
-19.83968   0.00000   0.00000   0.00000   0.00000
-19.78958   0.00000   0.00000   0.00000   0.00000
-19.73948   0.00000   0.00000   0.00000   0.00000
-19.68938   0.00000   0.00000   0.00000   0.00000
-19.63928   0.00000   0.00000   0.00000   0.00000
-19.58918   0.00000   0.00000   0.00000   0.00000
-19.53908   0.00000   0.00000   0.00000   0.00000
-19.48898   0.00000   0.00000   0.00000   0.00000
-19.43888   0.00000   0.00000   0.00000   0.00000
-19.38878   0.00000   0.00000   0.00000   0.00000
-19.33868   0.00000   0.00000   0.00000   0.00000
-19.28858   0.00000   0.00000   0.00000   0.00000
-19.23848   0.00000   0.00000   0.00000   0.00000
-19.18838   0.00000   0.00000   0.00000   0.00000
-19.13828   0.00000   0.00000   0.00000   0.00000
-19.08818   0.00000   0.00000   0.00000   0.00000
-19.03808   0.00000   0.00000   0.00000   0.00000
-18.98798   0.00000   0.00000   0.00000   0.00000
-18.93788   0.00000   0.00000   0.00000   0.00000
-18.88778   0.00000   0.00000   0.00000   0.00000
-18.83768   0.00000   0.00000   0.00000   0.00000
-18.78758   0.00000   0.00000   0.00000   0.00000
-18.73747   0.00000   0.00000   0.00000   0.00000
-18.68737   0.00000   0.00000   0.00000   0.00000
-18.63727   0.00000   0.00000   0.00000   0.00000
-18.58717   0.00000   0.00000   0.00000   0.00000
-18.53707   0.00000   0.00000   0.00000   0.00000
-18.48697   0.00000   0.00000   0.00000   0.00000
-18.43687   0.01478   0.00001   0.00000   0.00001
-18.38677   0.08897   0.00007   0.00000   0.00007
-18.33667   0.16947   0.00014   0.00000   0.00014
-18.28657   0.25004   0.00021   0.00000   0.00021
-18.23647   0.33068   0.00030   0.00000   0.00030
-18.18637   0.41361   0.00041   0.00000   0.00041
-18.13627   0.45026   0.00058   0.00000   0.00058
-18.08617   0.42899   0.00061   0.00000   0.00061
-18.03607   0.40771   0.00063   0.00000   0.00063
-17.98597   0.38644   0.00065   0.00000   0.00065
-17.93587   0.36581   0.00067   0.00001   0.00067
-17.88577   0.37149   0.00071   0.00001   0.00071
-17.83567   0.39101   0.00077   0.00001   0.00077
-17.78557   0.41058   0.00082   0.00001   0.00082
-17.73547   0.43019   0.00087   0.00001   0.00087
-17.68537   0.44985   0.00093   0.00001   0.00093
-17.63527   0.46956   0.00098   0.00001   0.00098
-17.58517   0.48932   0.00103   0.00001   0.00103
-17.53507   0.50912   0.00109   0.00001   0.00109
-17.48497   0.60900   0.00136   0.00002   0.00136
-17.43487   1.19891   0.00296   0.00005   0.00296
-17.38477   1.11089   0.00269   0.00004   0.00269
-17.33467   1.02266   0.00243   0.00003   0.00243
-17.28457   0.73378   0.00153   0.00002   0.00153
-17.23447   0.57664   0.00105   0.00001   0.00105
-17.18437   0.54100   0.00094   0.00001   0.00094
-17.13427   0.50523   0.00084   0.00001   0.00084
-17.08417   0.46934   0.00075   0.00001   0.00075
-17.03407   0.43332   0.00065   0.00000   0.00065
-16.98397   0.39718   0.00056   0.00000   0.00056
-16.93387   0.36092   0.00047   0.00000   0.00047
-16.88377   0.71430   0.00065   0.00000   0.00065
-16.83367   0.00000   0.00000   0.00000   0.00000
-16.78357   0.00000   0.00000   0.00000   0.00000
-16.73347   0.00000   0.00000   0.00000   0.00000
-16.68337   0.00000   0.00000   0.00000   0.00000
-16.63327   4.55580   0.00562   0.00028   0.00562
-16.58317   3.45566   0.00410   0.00017   0.00410
-16.53307   0.97454   0.00114   0.00005   0.00114
-16.48297   0.91832   0.00105   0.00005   0.00105
-16.43287   0.86193   0.00095   0.00005   0.00095
-16.38277   0.80535   0.00086   0.00004   0.00086
-16.33267   0.74858   0.00077   0.00004   0.00077
-16.28257   0.69163   0.00068   0.00003   0.00068
-16.23246   0.63450   0.00060   0.00003   0.00060
-16.18236   0.60111   0.00052   0.00003   0.00052
-16.13226   0.80232   0.00049   0.00003   0.00049
-16.08216   1.02389   0.00046   0.00003   0.00046
-16.03206   0.75200   0.00025   0.00002   0.00025
-15.98196   0.50172   0.00015   0.00001   0.00015
-15.93186   0.25046   0.00007   0.00001   0.00007
-15.88176   0.03071   0.00001   0.00000   0.00001
-15.83166   0.00000   0.00000   0.00000   0.00000
-15.78156   0.00000   0.00000   0.00000   0.00000
-15.73146   0.00000   0.00000   0.00000   0.00000
-15.68136   0.00000   0.00000   0.00000   0.00000
-15.63126   0.00000   0.00000   0.00000   0.00000
-15.58116   0.00000   0.00000   0.00000   0.00000
-15.53106   0.00000   0.00000   0.00000   0.00000
-15.48096   0.00000   0.00000   0.00000   0.00000
-15.43086   0.00000   0.00000   0.00000   0.00000
-15.38076   0.00000   0.00000   0.00000   0.00000
-15.33066   0.00000   0.00000   0.00000   0.00000
-15.28056   0.00000   0.00000   0.00000   0.00000
-15.23046   0.00000   0.00000   0.00000   0.00000
-15.18036   0.00000   0.00000   0.00000   0.00000
-15.13026   0.00000   0.00000   0.00000   0.00000
-15.08016   0.00000   0.00000   0.00000   0.00000
-15.03006   0.00000   0.00000   0.00000   0.00000
-14.97996   0.00000   0.00000   0.00000   0.00000
-14.92986   0.00000   0.00000   0.00000   0.00000
-14.87976   0.00000   0.00000   0.00000   0.00000
-14.82966   0.00000   0.00000   0.00000   0.00000
-14.77956   0.00000   0.00000   0.00000   0.00000
-14.72946   0.00000   0.00000   0.00000   0.00000
-14.67936   0.00000   0.00000   0.00000   0.00000
-14.62926   0.00000   0.00000   0.00000   0.00000
-14.57916   0.00000   0.00000   0.00000   0.00000
-14.52906   0.00000   0.00000   0.00000   0.00000
-14.47896   0.00000   0.00000   0.00000   0.00000
-14.42886   0.00000   0.00000   0.00000   0.00000
-14.37876   0.00000   0.00000   0.00000   0.00000
-14.32866   0.00000   0.00000   0.00000   0.00000
-14.27856   0.00000   0.00000   0.00000   0.00000
-14.22846   0.00000   0.00000   0.00000   0.00000
-14.17836   0.00000   0.00000   0.00000   0.00000
-14.12826   0.00000   0.00000   0.00000   0.00000
-14.07816   0.00000   0.00000   0.00000   0.00000
-14.02806   0.00000   0.00000   0.00000   0.00000
-13.97796   0.00000   0.00000   0.00000   0.00000
-13.92786   0.00000   0.00000   0.00000   0.00000
-13.87776   0.00000   0.00000   0.00000   0.00000
-13.82766   0.00008   0.00000   0.00027   0.00000
-13.77756   0.00053   0.00000   0.00117   0.00000
-13.72745   0.00168   0.00000   0.00248   0.00000
-13.67735   0.00445   0.00001   0.00363   0.00001
-13.62725   0.00819   0.00003   0.00392   0.00003
-13.57715   0.01090   0.00005   0.00353   0.00005
-13.52705   0.01077   0.00008   0.00310   0.00008
-13.47695   0.01021   0.00010   0.00292   0.00010
-13.42685   0.01099   0.00013   0.00301   0.00013
-13.37675   0.01381   0.00018   0.00466   0.00018
-13.32665   0.02517   0.00035   0.00749   0.00035
-13.27655   0.02948   0.00054   0.00724   0.00054
-13.22645   0.04457   0.00078   0.00738   0.00078
-13.17635   0.07304   0.00149   0.00639   0.00149
-13.12625   0.02826   0.00180   0.00173   0.00180
-13.07615   0.00378   0.00060   0.00014   0.00060
-13.02605   0.00000   0.00000   0.00000   0.00000
-12.97595   0.00000   0.00000   0.00000   0.00000
-12.92585   0.00000   0.00000   0.00000   0.00000
-12.87575   0.00000   0.00000   0.00000   0.00000
-12.82565   0.00000   0.00000   0.00000   0.00000
-12.77555   0.00000   0.00000   0.00000   0.00000
-12.72545   0.00000   0.00000   0.00000   0.00000
-12.67535   0.00000   0.00000   0.00000   0.00000
-12.62525   0.00000   0.00000   0.00000   0.00000
-12.57515   0.00000   0.00000   0.00000   0.00000
-12.52505   0.00000   0.00000   0.00000   0.00000
-12.47495   0.00000   0.00000   0.00000   0.00000
-12.42485   0.00000   0.00000   0.00000   0.00000
-12.37475   0.00000   0.00000   0.00000   0.00000
-12.32465   0.00000   0.00000   0.00000   0.00000
-12.27455   0.00000   0.00000   0.00000   0.00000
-12.22445   0.00000   0.00000   0.00000   0.00000
-12.17435   0.00000   0.00000   0.00000   0.00000
-12.12425   0.00000   0.00000   0.00000   0.00000
-12.07415   0.00000   0.00000   0.00000   0.00000
-12.02405   0.00000   0.00000   0.00000   0.00000
-11.97395   0.00000   0.00000   0.00000   0.00000
-11.92385   0.00000   0.00000   0.00000   0.00000
-11.87375   0.00000   0.00000   0.00000   0.00000
-11.82365   0.00000   0.00000   0.00000   0.00000
-11.77355   0.00000   0.00000   0.00000   0.00000
-11.72345   0.00000   0.00000   0.00000   0.00000
-11.67335   0.00000   0.00000   0.00000   0.00000
-11.62325   0.00000   0.00000   0.00000   0.00000
-11.57315   0.00000   0.00000   0.00000   0.00000
-11.52305   0.00000   0.00000   0.00000   0.00000
-11.47295   0.00000   0.00000   0.00000   0.00000
-11.42285   0.00000   0.00000   0.00000   0.00000
-11.37275   0.00000   0.00000   0.00000   0.00000
-11.32265   0.00000   0.00000   0.00000   0.00000
-11.27255   0.00000   0.00000   0.00000   0.00000
-11.22244   0.00000   0.00000   0.00000   0.00000
-11.17234   0.00000   0.00000   0.00000   0.00000
-11.12224   0.00000   0.00000   0.00000   0.00000
-11.07214   0.00000   0.00000   0.00000   0.00000
-11.02204   0.00000   0.00000   0.00000   0.00000
-10.97194   0.00000   0.00000   0.00000   0.00000
-10.92184   0.00000   0.00000   0.00000   0.00000
-10.87174   0.00000   0.00000   0.00000   0.00000
-10.82164   0.00000   0.00000   0.00000   0.00000
-10.77154   0.00000   0.00000   0.00000   0.00000
-10.72144   0.00000   0.00000   0.00000   0.00000
-10.67134   0.00000   0.00000   0.00000   0.00000
-10.62124   0.00000   0.00000   0.00000   0.00000
-10.57114   0.00000   0.00000   0.00000   0.00000
-10.52104   0.00000   0.00000   0.00000   0.00000
-10.47094   0.00000   0.00000   0.00000   0.00000
-10.42084   0.00000   0.00000   0.00000   0.00000
-10.37074   0.00000   0.00000   0.00000   0.00000
-10.32064   0.00000   0.00000   0.00000   0.00000
-10.27054   0.00000   0.00000   0.00000   0.00000
-10.22044   0.00000   0.00000   0.00000   0.00000
-10.17034   0.00000   0.00000   0.00000   0.00000
-10.12024   0.00000   0.00000   0.00000   0.00000
-10.07014   0.00000   0.00000   0.00000   0.00000
-10.02004   0.00000   0.00000   0.00000   0.00000
 -9.96994   0.00000   0.00000   0.00000   0.00000
 -9.91984   0.00000   0.00000   0.00000   0.00000
 -9.86974   0.00000   0.00000   0.00000   0.00000
 -9.81964   0.00000   0.00000   0.00000   0.00000
 -9.76954   0.00579   0.11885   0.02770   0.11885
 -9.71944   0.01147   0.07482   0.03316   0.07482
 -9.66934   0.01704   0.08687   0.04798   0.08687
 -9.61924   0.02633   0.10475   0.07683   0.10475
 -9.56914   0.05831   0.13242   0.17816   0.13242
 -9.51904   0.06705   0.10697   0.21266   0.10697
 -9.46894   0.10793   0.18466   0.24727   0.18466
 -9.41884   0.06881   0.09084   0.20395   0.09084
 -9.36874   0.02976   0.04381   0.10368   0.04381
 -9.31864   0.01906   0.02866   0.05007   0.02866
 -9.26854   0.02026   0.02656   0.02153   0.02656
 -9.21844   0.02187   0.02589   0.00478   0.02589
 -9.16834   0.02386   0.02653   0.00247   0.02653
 -9.11824   0.02594   0.02737   0.00276   0.02737
 -9.06814   0.02806   0.02819   0.00306   0.02819
 -9.01804   0.03022   0.02898   0.00337   0.02898
 -8.96794   0.03243   0.02975   0.00369   0.02975
 -8.91784   0.03748   0.03131   0.00456   0.03131
 -8.86774   0.06688   0.03952   0.01039   0.03952
 -8.81764   0.08246   0.04263   0.01376   0.04263
 -8.76754   0.08947   0.04294   0.01542   0.04294
 -8.71743   0.09655   0.04316   0.01712   0.04316
 -8.66733   0.09275   0.03922   0.01637   0.03922
 -8.61723   0.05491   0.02304   0.00758   0.02304
 -8.56713   0.04337   0.01792   0.00473   0.01792
 -8.51703   0.04284   0.01720   0.00453   0.01720
 -8.46693   0.04229   0.01648   0.00433   0.01648
 -8.41683   0.04172   0.01577   0.00413   0.01577
 -8.36673   0.04115   0.01506   0.00394   0.01506
 -8.31663   0.04056   0.01436   0.00374   0.01436
 -8.26653   0.03995   0.01367   0.00355   0.01367
 -8.21643   0.03934   0.01298   0.00336   0.01298
 -8.16633   0.03871   0.01230   0.00318   0.01230
 -8.11623   0.03807   0.01162   0.00300   0.01162
 -8.06613   0.03741   0.01095   0.00282   0.01095
 -8.01603   0.03674   0.01029   0.00264   0.01029
 -7.96593   0.03612   0.00964   0.00246   0.00964
 -7.91583   0.03615   0.00912   0.00227   0.00912
 -7.86573   0.03690   0.00874   0.00207   0.00874
 -7.81563   0.03836   0.00847   0.00186   0.00847
 -7.76553   0.03992   0.00821   0.00165   0.00821
 -7.71543   0.04149   0.00794   0.00146   0.00794
 -7.66533   0.04305   0.00764   0.00127   0.00764
 -7.61523   0.04461   0.00733   0.00110   0.00733
 -7.56513   0.04550   0.00680   0.00092   0.00680
 -7.51503   0.04382   0.00575   0.00074   0.00575
 -7.46493   0.04145   0.00485   0.00061   0.00485
 -7.41483   0.03732   0.00374   0.00049   0.00374
 -7.36473   0.03344   0.00315   0.00042   0.00315
 -7.31463   0.02981   0.00273   0.00036   0.00273
 -7.26453   0.02616   0.00232   0.00031   0.00232
 -7.21443   0.02250   0.00194   0.00026   0.00194
 -7.16433   0.01880   0.00157   0.00021   0.00157
 -7.11423   0.01509   0.00122   0.00016   0.00122
 -7.06413   0.01136   0.00089   0.00012   0.00089
 -7.01403   0.00760   0.00058   0.00008   0.00058
 -6.96393   0.00427   0.00032   0.00004   0.00032
 -6.91383   0.00196   0.00014   0.00002   0.00014
 -6.86373   0.00046   0.00003   0.00000   0.00003
 -6.81363   0.00001   0.00000   0.00000   0.00000
 -6.76353   0.00000   0.00000   0.00000   0.00000
 -6.71343   0.00000   0.00000   0.00000   0.00000
 -6.66333   0.00000   0.00000   0.00000   0.00000
 -6.61323   0.00000   0.00000   0.00000   0.00000
 -6.56313   0.00000   0.00000   0.00000   0.00000
 -6.51303   0.00000   0.00000   0.00000   0.00000
 -6.46293   0.00000   0.00000   0.00000   0.00000
 -6.41283   0.00000   0.00000   0.00000   0.00000
 -6.36273   0.00000   0.00000   0.00000   0.00000
 -6.31263   0.00000   0.00000   0.00000   0.00000
 -6.26253   0.00000   0.00000   0.00000   0.00000
 -6.21242   0.00000   0.00000   0.00000   0.00000
 -6.16232   0.00000   0.00000   0.00000   0.00000
 -6.11222   0.00000   0.00000   0.00000   0.00000
 -6.06212   0.00000   0.00000   0.00000   0.00000
 -6.01202   0.00000   0.00000   0.00000   0.00000
 -5.96192   0.00000   0.00000   0.00000   0.00000
 -5.91182   0.00000   0.00000   0.00000   0.00000
 -5.86172   0.00000   0.00000   0.00000   0.00000
 -5.81162   0.00000   0.00000   0.00000   0.00000
 -5.76152   0.00000   0.00000   0.00000   0.00000
 -5.71142   0.00000   0.00000   0.00000   0.00000
 -5.66132   0.00000   0.00000   0.00000   0.00000
 -5.61122   0.00000   0.00000   0.00000   0.00000
 -5.56112   0.00000   0.00000   0.00000   0.00000
 -5.51102   0.00000   0.00000   0.00000   0.00000
 -5.46092   0.00000   0.00000   0.00000   0.00000
 -5.41082   0.00000   0.00000   0.00000   0.00000
 -5.36072   0.00000   0.00000   0.00000   0.00000
 -5.31062   0.00000   0.00000   0.00000   0.00000
 -5.26052   0.00000   0.00000   0.00000   0.00000
 -5.21042   0.00000   0.00000   0.00000   0.00000
 -5.16032   0.00000   0.00000   0.00000   0.00000
 -5.11022   0.00000   0.00000   0.00000   0.00000
 -5.06012   0.00000   0.00000   0.00000   0.00000
 -5.01002   0.00000   0.00000   0.00000   0.00000
 -4.95992   0.00000   0.00000   0.00000   0.00000
 -4.90982   0.00000   0.00000   0.00000   0.00000
 -4.85972   0.00000   0.00000   0.00000   0.00000
 -4.80962   0.00000   0.00000   0.00000   0.00000
 -4.75952   0.00003   0.00503   0.00442   0.00503
 -4.70942   0.00424   0.59039   0.84285   0.58797
 -4.65932   0.00618   0.56432   0.74223   0.55352
 -4.60922   0.00759   0.48356   0.44494   0.46218
 -4.55912   0.00871   0.40460   0.24774   0.37093
 -4.50902   0.01021   0.43548   0.23214   0.38786
 -4.45892   0.01371   0.55432   0.24924   0.48861
 -4.40882   0.01182   0.37740   0.19623   0.36993
 -4.35872   0.00906   0.25147   0.29712   0.27684
 -4.30862   0.00894   0.26675   0.31055   0.29805
 -4.25852   0.00903   0.29219   0.41847   0.32740
 -4.20842   0.01077   0.31365   0.55777   0.33335
 -4.15832   0.01321   0.38607   0.53499   0.40055
 -4.10822   0.01217   0.35514   0.33207   0.36795
 -4.05812   0.01112   0.33160   0.23072   0.34279
 -4.00802   0.00984   0.30170   0.16691   0.31134
 -3.95792   0.00985   0.28672   0.15143   0.29487
 -3.90782   0.00999   0.27361   0.13961   0.28033
 -3.85772   0.01009   0.26013   0.12831   0.26548
 -3.80762   0.01013   0.24627   0.11755   0.25032
 -3.75752   0.01013   0.23203   0.10732   0.23484
 -3.70741   0.01008   0.21742   0.09762   0.21905
 -3.65731   0.01002   0.22027   0.08718   0.22086
 -3.60721   0.00712   0.17940   0.06366   0.17947
 -3.55711   0.00379   0.11728   0.04014   0.11728
 -3.50701   0.00228   0.08782   0.02807   0.08782
 -3.45691   0.00327   0.11150   0.04746   0.11150
 -3.40681   0.00476   0.14042   0.08061   0.14042
 -3.35671   0.00739   0.20153   0.12815   0.20153
 -3.30661   0.01167   0.22135   0.23679   0.22135
 -3.25651   0.01417   0.24432   0.33164   0.24432
 -3.20641   0.01602   0.25846   0.42135   0.25846
 -3.15631   0.01718   0.25934   0.48276   0.25934
 -3.10621   0.01402   0.18658   0.41828   0.18658
 -3.05611   0.01059   0.10138   0.29574   0.10138
 -3.00601   0.02381   0.19825   0.52017   0.19825
 -2.95591   0.02981   0.29931   0.67336   0.29931
 -2.90581   0.02338   0.26636   0.53279   0.26636
 -2.85571   0.01558   0.18265   0.40638   0.18266
 -2.80561   0.01262   0.14040   0.34965   0.14043
 -2.75551   0.01096   0.12536   0.32144   0.12543
 -2.70541   0.00933   0.11711   0.27698   0.11721
 -2.65531   0.00808   0.11711   0.23626   0.11724
 -2.60521   0.00712   0.12251   0.20533   0.12268
 -2.55511   0.00659   0.18372   0.20079   0.18393
 -2.50501   0.00965   0.31841   0.34265   0.31865
 -2.45491   0.00548   0.35008   0.33597   0.35036
 -2.40481   0.00647   0.42301   0.39271   0.42334
 -2.35471   0.00983   0.63374   0.55462   0.63408
 -2.30461   0.01239   0.68321   0.50510   0.68349
 -2.25451   0.00734   0.46057   0.38147   0.46073
 -2.20441   0.00572   0.36595   0.33153   0.36582
 -2.15431   0.00531   0.31073   0.29899   0.31038
 -2.10421   0.00502   0.27953   0.28461   0.27813
 -2.05411   0.00511   0.26910   0.26826   0.26565
 -2.00401   0.00612   0.28550   0.29537   0.27999
 -1.95391   0.00502   0.27051   0.25829   0.26124
 -1.90381   0.00502   0.25601   0.19650   0.24630
 -1.85371   0.00543   0.30921   0.20710   0.30041
 -1.80361   0.00643   0.48421   0.29712   0.48006
 -1.75351   0.00798   0.49667   0.33364   0.50621
 -1.70341   0.00569   0.38741   0.31723   0.40225
 -1.65331   0.00335   0.22481   0.23192   0.23679
 -1.60321   0.00307   0.14981   0.20514   0.15212
 -1.55311   0.00352   0.15781   0.16799   0.15562
 -1.50301   0.00413   0.19796   0.18048   0.19418
 -1.45291   0.00594   0.40864   0.27887   0.37666
 -1.40281   0.00650   0.61147   0.37544   0.52639
 -1.35271   0.00483   0.56847   0.34630   0.50951
 -1.30261   0.00421   0.53883   0.32659   0.54109
 -1.25251   0.00392   0.54424   0.32419   0.59277
 -1.20240   0.00381   0.64234   0.32484   0.71524
 -1.15230   0.00322   0.65704   0.26347   0.70434
 -1.10220   0.00212   0.53596   0.19427   0.54998
 -1.05210   0.00136   0.29774   0.21873   0.30178
 -1.00200   0.00149   0.74085   1.09739   0.74743
 -0.95190   0.00209   1.01272   1.44472   1.01671
 -0.90180   0.00165   0.63022   0.93999   0.62973
 -0.85170   0.00081   0.30164   0.80433   0.29527
 -0.80160   0.00079   0.19563   0.51969   0.19226
 -0.75150   0.00085   0.60342   0.43570   0.60068
 -0.70140   0.00085   0.52121   0.22036   0.51937
 -0.65130   0.00105   0.44775   0.19199   0.44686
 -0.60120   0.00153   0.43117   0.22883   0.43102
 -0.55110   0.00548   0.57782   0.40894   0.57782
 -0.50100   0.00576   0.53352   0.51700   0.53352
 -0.45090   0.00404   0.44596   0.58067   0.44596
 -0.40080   0.00359   0.39621   0.78603   0.39621
 -0.35070   0.00272   0.29926   0.76870   0.29926
 -0.30060   0.00164   0.20512   0.49455   0.20512
 -0.25050   0.00094   0.14509   0.25418   0.14509
 -0.20040   0.00063   0.10751   0.17944   0.10751
 -0.15030   0.00044   0.07885   0.11601   0.07885
 -0.10020   0.00026   0.05332   0.07009   0.05332
 -0.05010   0.00010   0.02423   0.02850   0.02423
 -0.00000   0.00000   0.00000   0.00000   0.00000
  0.05010   0.00000   0.00000   0.00000   0.00000
  0.10020   0.00000   0.00000   0.00000   0.00000
  0.15030   0.00000   0.00000   0.00000   0.00000
  0.20040   0.00000   0.00000   0.00000   0.00000
  0.25050   0.00000   0.00000   0.00000   0.00000
  0.30060   0.00000   0.00000   0.00000   0.00000
  0.35070   0.00000   0.00000   0.00000   0.00000
  0.40080   0.00000   0.00000   0.00000   0.00000
  0.45090   0.00000   0.00000   0.00000   0.00000
  0.50100   0.00000   0.00000   0.00000   0.00000
  0.55110   0.00000   0.00000   0.00000   0.00000
  0.60120   0.00000   0.00000   0.00000   0.00000
  0.65130   0.00000   0.00000   0.00000   0.00000
  0.70140   0.00000   0.00000   0.00000   0.00000
  0.75150   0.00000   0.00000   0.00000   0.00000
  0.80160   0.00000   0.00000   0.00000   0.00000
  0.85170   0.00000   0.00000   0.00000   0.00000
  0.90180   0.00000   0.00000   0.00000   0.00000
  0.95190   0.00000   0.00000   0.00000   0.00000
  1.00200   0.00000   0.00000   0.00000   0.00000
  1.05210   0.00000   0.00000   0.00000   0.00000
  1.10220   0.00000   0.00000   0.00000   0.00000
  1.15230   0.00000   0.00000   0.00000   0.00000
  1.20240   0.00000   0.00000   0.00000   0.00000
  1.25251   0.00000   0.00000   0.00000   0.00000
  1.30261   0.00000   0.00000   0.00000   0.00000
  1.35271   0.00000   0.00000   0.00000   0.00000
  1.40281   0.00000   0.00000   0.00000   0.00000
  1.45291   0.00000   0.00000   0.00000   0.00000
  1.50301   0.00000   0.00000   0.00000   0.00000
  1.55311   0.00000   0.00000   0.00000   0.00000
  1.60321   0.00000   0.00000   0.00000   0.00000
  1.65331   0.00000   0.00000   0.00000   0.00000
  1.70341   0.00000   0.00000   0.00000   0.00000
  1.75351   0.00000   0.00000   0.00000   0.00000
  1.80361   0.00000   0.00000   0.00000   0.00000
  1.85371   0.00000   0.00000   0.00000   0.00000
  1.90381   0.00000   0.00000   0.00000   0.00000
  1.95391   0.00000   0.00000   0.00000   0.00000
  2.00401   0.00000   0.00000   0.00000   0.00000
  2.05411   0.00000   0.00000   0.00000   0.00000
  2.10421   0.00000   0.00000   0.00000   0.00000
  2.15431   0.00000   0.00000   0.00000   0.00000
  2.20441   0.00000   0.00000   0.00000   0.00000
  2.25451   0.00000   0.00000   0.00000   0.00000
  2.30461   0.00000   0.00000   0.00000   0.00000
  2.35471   0.00000   0.00000   0.00000   0.00000
  2.40481   0.00000   0.00000   0.00000   0.00000
  2.45491   0.00000   0.00000   0.00000   0.00000
  2.50501   0.00000   0.00000   0.00000   0.00000
  2.55511   0.00000   0.00000   0.00000   0.00000
  2.60521   0.00002   0.00001   0.00000   0.00001
  2.65531   0.00020   0.00006   0.00000   0.00006
  2.70541   0.00045   0.00014   0.00001   0.00014
  2.75551   0.00076   0.00024   0.00001   0.00024
  2.80561   0.00114   0.00036   0.00002   0.00036
  2.85571   0.00158   0.00051   0.00002   0.00051
  2.90581   0.00212   0.00070   0.00004   0.00070
  2.95591   0.00275   0.00094   0.00005   0.00094
  3.00601   0.00347   0.00122   0.00008   0.00122
  3.05611   0.00420   0.00154   0.00016   0.00154
  3.10621   0.00492   0.00192   0.00032   0.00192
  3.15631   0.00564   0.00234   0.00050   0.00234
  3.20641   0.00636   0.00279   0.00072   0.00279
  3.25651   0.00707   0.00327   0.00096   0.00327
  3.30661   0.00777   0.00378   0.00124   0.00378
  3.35671   0.00847   0.00433   0.00155   0.00433
  3.40681   0.00917   0.00492   0.00188   0.00492
  3.45691   0.00986   0.00554   0.00226   0.00554
  3.50701   0.01055   0.00624   0.00273   0.00624
  3.55711   0.01124   0.00701   0.00327   0.00701
  3.60721   0.01194   0.00785   0.00391   0.00785
  3.65731   0.01716   0.01183   0.00482   0.01183
  3.70741   0.03513   0.02318   0.00762   0.02318
  3.75752   0.07410   0.04043   0.01488   0.04043
  3.80762   0.08362   0.04303   0.02123   0.04303
  3.85772   0.09105   0.04647   0.02629   0.04647
  3.90782   0.10979   0.05546   0.03278   0.05546
  3.95792   0.10997   0.05740   0.04167   0.05740
  4.00802   0.11073   0.05194   0.04872   0.05194
  4.05812   0.10744   0.04933   0.05452   0.04933
  4.10822   0.08806   0.04637   0.05945   0.04637
  4.15832   0.06319   0.04236   0.06334   0.04236
  4.20842   0.04573   0.03858   0.06620   0.03858
  4.25852   0.03352   0.03593   0.06844   0.03593
  4.30862   0.02954   0.03567   0.07066   0.03567
  4.35872   0.02573   0.03491   0.07207   0.03491
  4.40882   0.02246   0.03387   0.06921   0.03387
  4.45892   0.02210   0.03338   0.02782   0.03338
  4.50902   0.02904   0.04200   0.02895   0.04200
  4.55912   0.04412   0.06527   0.03863   0.06527
  4.60922   0.06433   0.09323   0.04858   0.09323
  4.65932   0.13219   0.17519   0.09557   0.17519
  4.70942   0.08522   0.11044   0.06772   0.11044
  4.75952   0.05350   0.08259   0.05781   0.08262
  4.80962   0.04520   0.07799   0.07810   0.07826
  4.85972   0.04014   0.08007   0.09601   0.08072
  4.90982   0.02648   0.06830   0.08834   0.06937
  4.95992   0.01469   0.05782   0.08843   0.05925
  5.01002   0.00710   0.05270   0.09386   0.05439
