BiClO                                   
   1.00000000000000     
     3.893397    0.000000    0.000000
     0.000000    3.893397    0.000000
     0.000000    0.000000    7.493189
  Bi_d/572e7eac3  Cl/9f1b6e6ed42  O/818f92134a0a
               2               2               2
Direct
  0.000000  0.500000  0.832303
  0.500000  0.000000  0.167697
  0.500000  0.000000  0.653578
  0.000000  0.500000  0.346422
  0.000000  0.000000  0.000000
  0.500000  0.500000  0.000000
 
   24   24   48
 0.33864     0.45520     0.68177     0.80889     0.82524     0.73767     0.50829     0.26343     0.14914     0.13360    
 0.15295     0.17806     0.19239     0.17806     0.15295     0.13360     0.14914     0.26343     0.50829     0.73767    
 0.82524     0.80889     0.68177     0.45520     0.45520     0.55068     0.72262     0.81648     0.81889     0.71903    
 0.48481     0.24814     0.14232     0.12785     0.14426     0.16600     0.17806     0.16600     0.14426     0.12785    
 0.14232     0.24814     0.48481     0.71903     0.81889     0.81648     0.72262     0.55068     0.68177     0.72262    
 0.79270     0.82474     0.79274     0.65708     0.41102     0.20082     0.12145     0.11303     0.12665     0.14426    
 0.15295     0.14426     0.12665     0.11303     0.12145     0.20082     0.41102     0.65708     0.79274     0.82474    
 0.79270     0.72262     0.80889     0.81648     0.82474     0.80587     0.72379     0.53413     0.28781     0.13651    
 0.96049E-01 0.98451E-01 0.11303     0.12785     0.13359     0.12785     0.11303     0.98451E-01 0.96049E-01 0.13651    
 0.28781     0.53413     0.72379     0.80587     0.82474     0.81648     0.82524     0.81889     0.79274     0.72379    
 0.57420     0.34711     0.15981     0.87813E-01 0.80009E-01 0.96047E-01 0.12145     0.14232     0.14914     0.14232    
 0.12145     0.96047E-01 0.80009E-01 0.87813E-01 0.15981     0.34711     0.57420     0.72379     0.79274     0.81889    
 0.73767     0.71903     0.65708     0.53413     0.34711     0.17077     0.85252E-01 0.68142E-01 0.87810E-01 0.13650    
 0.20081     0.24813     0.26342     0.24813     0.20081     0.13650     0.87810E-01 0.68142E-01 0.85252E-01 0.17077    
 0.34711     0.53413     0.65708     0.71903     0.50829     0.48481     0.41102     0.28781     0.15981     0.85252E-01
 0.64337E-01 0.85250E-01 0.15980     0.28780     0.41101     0.48481     0.50828     0.48481     0.41101     0.28780    
 0.15980     0.85250E-01 0.64337E-01 0.85252E-01 0.15981     0.28781     0.41102     0.48481     0.26343     0.24814    
 0.20082     0.13651     0.87813E-01 0.68142E-01 0.85250E-01 0.17076     0.34711     0.53412     0.65707     0.71903    
 0.73767     0.71903     0.65707     0.53412     0.34711     0.17076     0.85250E-01 0.68142E-01 0.87813E-01 0.13651    
 0.20082     0.24814     0.14914     0.14232     0.12145     0.96049E-01 0.80009E-01 0.87810E-01 0.15980     0.34711    
 0.57420     0.72379     0.79274     0.81889     0.82524     0.81889     0.79274     0.72379     0.57420     0.34711    
 0.15980     0.87810E-01 0.80009E-01 0.96049E-01 0.12145     0.14232     0.13360     0.12785     0.11303     0.98451E-01
 0.96047E-01 0.13650     0.28780     0.53412     0.72379     0.80587     0.82475     0.81648     0.80889     0.81648    
 0.82475     0.80587     0.72379     0.53412     0.28780     0.13650     0.96047E-01 0.98451E-01 0.11303     0.12785    
 0.15295     0.14426     0.12665     0.11303     0.12145     0.20081     0.41101     0.65707     0.79274     0.82475    
 0.79270     0.72262     0.68177     0.72262     0.79270     0.82475     0.79274     0.65707     0.41101     0.20081    
 0.12145     0.11303     0.12665     0.14426     0.17806     0.16600     0.14426     0.12785     0.14232     0.24813    
 0.48481     0.71903     0.81889     0.81648     0.72262     0.55068     0.45520     0.55068     0.72262     0.81648    
 0.81889     0.71903     0.48481     0.24813     0.14232     0.12785     0.14426     0.16600     0.19239     0.17806    
 0.15295     0.13359     0.14914     0.26342     0.50828     0.73767     0.82524     0.80889     0.68177     0.45520    
 0.33864     0.45520     0.68177     0.80889     0.82524     0.73767     0.50828     0.26342     0.14914     0.13359    
 0.15295     0.17806     0.17806     0.16600     0.14426     0.12785     0.14232     0.24813     0.48481     0.71903    
 0.81889     0.81648     0.72262     0.55068     0.45520     0.55068     0.72262     0.81648     0.81889     0.71903    
 0.48481     0.24813     0.14232     0.12785     0.14426     0.16600     0.15295     0.14426     0.12665     0.11303    
 0.12145     0.20081     0.41101     0.65707     0.79274     0.82475     0.79270     0.72262     0.68177     0.72262    
 0.79270     0.82475     0.79274     0.65707     0.41101     0.20081     0.12145     0.11303     0.12665     0.14426    
 0.13360     0.12785     0.11303     0.98451E-01 0.96047E-01 0.13650     0.28780     0.53412     0.72379     0.80587    
 0.82475     0.81648     0.80889     0.81648     0.82475     0.80587     0.72379     0.53412     0.28780     0.13650    
 0.96047E-01 0.98451E-01 0.11303     0.12785     0.14914     0.14232     0.12145     0.96049E-01 0.80009E-01 0.87810E-01
 0.15980     0.34711     0.57420     0.72379     0.79274     0.81889     0.82524     0.81889     0.79274     0.72379    
 0.57420     0.34711     0.15980     0.87810E-01 0.80009E-01 0.96049E-01 0.12145     0.14232     0.26343     0.24814    
 0.20082     0.13651     0.87813E-01 0.68142E-01 0.85250E-01 0.17076     0.34711     0.53412     0.65707     0.71903    
 0.73767     0.71903     0.65707     0.53412     0.34711     0.17076     0.85250E-01 0.68142E-01 0.87813E-01 0.13651    
 0.20082     0.24814     0.50829     0.48481     0.41102     0.28781     0.15981     0.85252E-01 0.64337E-01 0.85250E-01
 0.15980     0.28780     0.41101     0.48481     0.50828     0.48481     0.41101     0.28780     0.15980     0.85250E-01
 0.64337E-01 0.85252E-01 0.15981     0.28781     0.41102     0.48481     0.73767     0.71903     0.65708     0.53413    
 0.34711     0.17077     0.85252E-01 0.68142E-01 0.87810E-01 0.13650     0.20081     0.24813     0.26342     0.24813    
 0.20081     0.13650     0.87810E-01 0.68142E-01 0.85252E-01 0.17077     0.34711     0.53413     0.65708     0.71903    
 0.82524     0.81889     0.79274     0.72379     0.57420     0.34711     0.15981     0.87813E-01 0.80009E-01 0.96047E-01
 0.12145     0.14232     0.14914     0.14232     0.12145     0.96047E-01 0.80009E-01 0.87813E-01 0.15981     0.34711    
 0.57420     0.72379     0.79274     0.81889     0.80889     0.81648     0.82474     0.80587     0.72379     0.53413    
 0.28781     0.13651     0.96049E-01 0.98451E-01 0.11303     0.12785     0.13359     0.12785     0.11303     0.98451E-01
 0.96049E-01 0.13651     0.28781     0.53413     0.72379     0.80587     0.82474     0.81648     0.68177     0.72262    
 0.79270     0.82474     0.79274     0.65708     0.41102     0.20082     0.12145     0.11303     0.12665     0.14426    
 0.15295     0.14426     0.12665     0.11303     0.12145     0.20082     0.41102     0.65708     0.79274     0.82474    
 0.79270     0.72262     0.45520     0.55068     0.72262     0.81648     0.81889     0.71903     0.48481     0.24814    
 0.14232     0.12785     0.14426     0.16600     0.17806     0.16600     0.14426     0.12785     0.14232     0.24814    
 0.48481     0.71903     0.81889     0.81648     0.72262     0.55068     0.44832     0.54828     0.72785     0.82512    
 0.82729     0.71097     0.44797     0.22956     0.16686     0.20034     0.26521     0.31748     0.33819     0.31748    
 0.26521     0.20034     0.16686     0.22956     0.44797     0.71097     0.82729     0.82512     0.72785     0.54828    
 0.54331     0.62119     0.75671     0.82885     0.81876     0.69034     0.42782     0.21971     0.16112     0.19096    
 0.24960     0.29821     0.31748     0.29821     0.24960     0.19096     0.16112     0.21971     0.42782     0.69034    
 0.81876     0.82885     0.75671     0.62119     0.71539     0.74856     0.80536     0.82851     0.78619     0.62419    
 0.36595     0.18845     0.14352     0.16588     0.21019     0.24960     0.26521     0.24960     0.21019     0.16588    
 0.14352     0.18845     0.36595     0.62419     0.78619     0.82851     0.80536     0.74856     0.80986     0.81622    
 0.82205     0.79989     0.70793     0.50171     0.26476     0.14163     0.11974     0.13718     0.16588     0.19096    
 0.20034     0.19096     0.16588     0.13718     0.11974     0.14163     0.26476     0.50171     0.70793     0.79989    
 0.82205     0.81622     0.81370     0.80723     0.78066     0.70965     0.55430     0.32681     0.15656     0.99305E-01
 0.10009     0.11974     0.14352     0.16111     0.16685     0.16111     0.14352     0.11974     0.10009     0.99305E-01
 0.15656     0.32681     0.55430     0.70965     0.78066     0.80723     0.72639     0.70796     0.64664     0.52350    
 0.33482     0.16394     0.87750E-01 0.76910E-01 0.99302E-01 0.14163     0.18845     0.21970     0.22955     0.21970    
 0.18845     0.14163     0.99302E-01 0.76910E-01 0.87750E-01 0.16394     0.33482     0.52350     0.64664     0.70796    
 0.51764     0.49306     0.41501     0.28365     0.15202     0.81663E-01 0.65041E-01 0.87747E-01 0.15655     0.26475    
 0.36595     0.42781     0.44796     0.42781     0.36595     0.26475     0.15655     0.87747E-01 0.65041E-01 0.81663E-01
 0.15202     0.28365     0.41501     0.49306     0.27341     0.25457     0.19752     0.12552     0.77815E-01 0.62273E-01
 0.81661E-01 0.16393     0.32680     0.50170     0.62418     0.69033     0.71097     0.69033     0.62418     0.50170    
 0.32680     0.16393     0.81661E-01 0.62273E-01 0.77815E-01 0.12552     0.19752     0.25457     0.13519     0.12671    
 0.10227     0.76788E-01 0.65145E-01 0.77813E-01 0.15202     0.33481     0.55429     0.70792     0.78619     0.81876    
 0.82729     0.81876     0.78619     0.70792     0.55429     0.33481     0.15202     0.77813E-01 0.65145E-01 0.76788E-01
 0.10227     0.12671     0.97191E-01 0.92117E-01 0.79891E-01 0.71144E-01 0.76786E-01 0.12551     0.28364     0.52350    
 0.70965     0.79989     0.82851     0.82885     0.82512     0.82885     0.82851     0.79989     0.70965     0.52350    
 0.28364     0.12551     0.76786E-01 0.71144E-01 0.79891E-01 0.92117E-01 0.93769E-01 0.88596E-01 0.80471E-01 0.79890E-01
 0.10226     0.19751     0.41500     0.64664     0.78066     0.82206     0.80536     0.75671     0.72785     0.75671    
 0.80536     0.82206     0.78066     0.64664     0.41500     0.19751     0.10226     0.79890E-01 0.80471E-01 0.88596E-01
 0.10082     0.94780E-01 0.88595E-01 0.92114E-01 0.12670     0.25456     0.49305     0.70796     0.80723     0.81623    
 0.74856     0.62119     0.54828     0.62119     0.74856     0.81623     0.80723     0.70796     0.49305     0.25456    
 0.12670     0.92114E-01 0.88595E-01 0.94780E-01 0.10820     0.10082     0.93767E-01 0.97188E-01 0.13518     0.27340    
 0.51763     0.72639     0.81370     0.80987     0.71539     0.54331     0.44832     0.54331     0.71539     0.80987    
 0.81370     0.72639     0.51763     0.27340     0.13518     0.97188E-01 0.93767E-01 0.10082     0.10082     0.94780E-01
 0.88595E-01 0.92114E-01 0.12670     0.25456     0.49305     0.70796     0.80723     0.81623     0.74856     0.62119    
 0.54828     0.62119     0.74856     0.81623     0.80723     0.70796     0.49305     0.25456     0.12670     0.92114E-01
 0.88595E-01 0.94780E-01 0.93769E-01 0.88596E-01 0.80471E-01 0.79890E-01 0.10226     0.19751     0.41500     0.64664    
 0.78066     0.82206     0.80536     0.75671     0.72785     0.75671     0.80536     0.82206     0.78066     0.64664    
 0.41500     0.19751     0.10226     0.79890E-01 0.80471E-01 0.88596E-01 0.97191E-01 0.92117E-01 0.79891E-01 0.71144E-01
 0.76786E-01 0.12551     0.28364     0.52350     0.70965     0.79989     0.82851     0.82885     0.82512     0.82885    
 0.82851     0.79989     0.70965     0.52350     0.28364     0.12551     0.76786E-01 0.71144E-01 0.79891E-01 0.92117E-01
 0.13519     0.12671     0.10227     0.76788E-01 0.65145E-01 0.77813E-01 0.15202     0.33481     0.55429     0.70792    
 0.78619     0.81876     0.82729     0.81876     0.78619     0.70792     0.55429     0.33481     0.15202     0.77813E-01
 0.65145E-01 0.76788E-01 0.10227     0.12671     0.27341     0.25457     0.19752     0.12552     0.77815E-01 0.62273E-01
 0.81661E-01 0.16393     0.32680     0.50170     0.62418     0.69033     0.71097     0.69033     0.62418     0.50170    
 0.32680     0.16393     0.81661E-01 0.62273E-01 0.77815E-01 0.12552     0.19752     0.25457     0.51764     0.49306    
 0.41501     0.28365     0.15202     0.81663E-01 0.65041E-01 0.87747E-01 0.15655     0.26475     0.36595     0.42781    
 0.44796     0.42781     0.36595     0.26475     0.15655     0.87747E-01 0.65041E-01 0.81663E-01 0.15202     0.28365    
 0.41501     0.49306     0.72639     0.70796     0.64664     0.52350     0.33482     0.16394     0.87750E-01 0.76910E-01
 0.99302E-01 0.14163     0.18845     0.21970     0.22955     0.21970     0.18845     0.14163     0.99302E-01 0.76910E-01
 0.87750E-01 0.16394     0.33482     0.52350     0.64664     0.70796     0.81370     0.80723     0.78066     0.70965    
 0.55430     0.32681     0.15656     0.99305E-01 0.10009     0.11974     0.14352     0.16111     0.16685     0.16111    
 0.14352     0.11974     0.10009     0.99305E-01 0.15656     0.32681     0.55430     0.70965     0.78066     0.80723    
 0.80986     0.81622     0.82205     0.79989     0.70793     0.50171     0.26476     0.14163     0.11974     0.13718    
 0.16588     0.19096     0.20034     0.19096     0.16588     0.13718     0.11974     0.14163     0.26476     0.50171    
 0.70793     0.79989     0.82205     0.81622     0.71539     0.74856     0.80536     0.82851     0.78619     0.62419    
 0.36595     0.18845     0.14352     0.16588     0.21019     0.24960     0.26521     0.24960     0.21019     0.16588    
 0.14352     0.18845     0.36595     0.62419     0.78619     0.82851     0.80536     0.74856     0.54331     0.62119    
 0.75671     0.82885     0.81876     0.69034     0.42782     0.21971     0.16112     0.19096     0.24960     0.29821    
 0.31748     0.29821     0.24960     0.19096     0.16112     0.21971     0.42782     0.69034     0.81876     0.82885    
 0.75671     0.62119     0.66837     0.71717     0.80051     0.84086     0.80564     0.62559     0.34713     0.20690    
 0.23263     0.33841     0.42124     0.45896     0.46927     0.45896     0.42124     0.33841     0.23263     0.20690    
 0.34713     0.62559     0.80564     0.84086     0.80051     0.71717     0.71081     0.74783     0.81112     0.83840    
 0.79261     0.60358     0.33323     0.19974     0.22301     0.32331     0.40667     0.44747     0.45896     0.44747    
 0.40667     0.32331     0.22301     0.19974     0.33323     0.60358     0.79261     0.83840     0.81112     0.74783    
 0.78363     0.79972     0.82542     0.82304     0.74696     0.53726     0.29146     0.17832     0.19551     0.27803    
 0.35894     0.40667     0.42124     0.40667     0.35894     0.27803     0.19551     0.17832     0.29146     0.53726    
 0.74696     0.82304     0.82542     0.79972     0.81736     0.81893     0.81358     0.77436     0.65149     0.42585    
 0.22346     0.14611     0.15916     0.21437     0.27803     0.32331     0.33841     0.32331     0.27803     0.21437    
 0.15916     0.14611     0.22346     0.42585     0.65149     0.77436     0.81358     0.81893     0.79054     0.78178    
 0.74779     0.66251     0.49290     0.27890     0.14622     0.11293     0.12747     0.15916     0.19550     0.22301    
 0.23263     0.22301     0.19550     0.15916     0.12747     0.11293     0.14622     0.27890     0.49290     0.66251    
 0.74779     0.78178     0.68241     0.66236     0.59756     0.47256     0.29193     0.14608     0.90315E-01 0.89316E-01
 0.11292     0.14611     0.17831     0.19974     0.20689     0.19974     0.17831     0.14611     0.11292     0.89316E-01
 0.90315E-01 0.14608     0.29193     0.47256     0.59756     0.66236     0.47941     0.45431     0.37643     0.25043    
 0.13325     0.76853E-01 0.67303E-01 0.90313E-01 0.14622     0.22345     0.29145     0.33322     0.34712     0.33322    
 0.29145     0.22345     0.14622     0.90313E-01 0.67303E-01 0.76853E-01 0.13325     0.25043     0.37643     0.45431    
 0.24920     0.23021     0.17441     0.10806     0.68223E-01 0.57950E-01 0.76851E-01 0.14607     0.27889     0.42584    
 0.53725     0.60357     0.62559     0.60357     0.53725     0.42584     0.27889     0.14607     0.76851E-01 0.57950E-01
 0.68223E-01 0.10806     0.17441     0.23021     0.11311     0.10530     0.82955E-01 0.61452E-01 0.54290E-01 0.68221E-01
 0.13324     0.29192     0.49289     0.65149     0.74696     0.79261     0.80564     0.79261     0.74696     0.65149    
 0.49289     0.29192     0.13324     0.68221E-01 0.54290E-01 0.61452E-01 0.82955E-01 0.10530     0.68022E-01 0.64480E-01
 0.55873E-01 0.51778E-01 0.61450E-01 0.10805     0.25043     0.47255     0.66251     0.77436     0.82304     0.83840    
 0.84087     0.83840     0.82304     0.77436     0.66251     0.47255     0.25043     0.10805     0.61450E-01 0.51778E-01
 0.55873E-01 0.64480E-01 0.54564E-01 0.52353E-01 0.49953E-01 0.55872E-01 0.82952E-01 0.17441     0.37642     0.59756    
 0.74779     0.81358     0.82543     0.81112     0.80051     0.81112     0.82543     0.81358     0.74779     0.59756    
 0.37642     0.17441     0.82952E-01 0.55872E-01 0.49953E-01 0.52353E-01 0.53003E-01 0.51244E-01 0.52353E-01 0.64478E-01
 0.10529     0.23020     0.45431     0.66236     0.78178     0.81893     0.79972     0.74783     0.71717     0.74783    
 0.79972     0.81893     0.78178     0.66236     0.45431     0.23020     0.10529     0.64478E-01 0.52353E-01 0.51244E-01
 0.55100E-01 0.53003E-01 0.54563E-01 0.68019E-01 0.11310     0.24919     0.47941     0.68241     0.79054     0.81737    
 0.78363     0.71081     0.66837     0.71081     0.78363     0.81737     0.79054     0.68241     0.47941     0.24919    
 0.11310     0.68019E-01 0.54563E-01 0.53003E-01 0.53003E-01 0.51244E-01 0.52353E-01 0.64478E-01 0.10529     0.23020    
 0.45431     0.66236     0.78178     0.81893     0.79972     0.74783     0.71717     0.74783     0.79972     0.81893    
 0.78178     0.66236     0.45431     0.23020     0.10529     0.64478E-01 0.52353E-01 0.51244E-01 0.54564E-01 0.52353E-01
 0.49953E-01 0.55872E-01 0.82952E-01 0.17441     0.37642     0.59756     0.74779     0.81358     0.82543     0.81112    
 0.80051     0.81112     0.82543     0.81358     0.74779     0.59756     0.37642     0.17441     0.82952E-01 0.55872E-01
 0.49953E-01 0.52353E-01 0.68022E-01 0.64480E-01 0.55873E-01 0.51778E-01 0.61450E-01 0.10805     0.25043     0.47255    
 0.66251     0.77436     0.82304     0.83840     0.84087     0.83840     0.82304     0.77436     0.66251     0.47255    
 0.25043     0.10805     0.61450E-01 0.51778E-01 0.55873E-01 0.64480E-01 0.11311     0.10530     0.82955E-01 0.61452E-01
 0.54290E-01 0.68221E-01 0.13324     0.29192     0.49289     0.65149     0.74696     0.79261     0.80564     0.79261    
 0.74696     0.65149     0.49289     0.29192     0.13324     0.68221E-01 0.54290E-01 0.61452E-01 0.82955E-01 0.10530    
 0.24920     0.23021     0.17441     0.10806     0.68223E-01 0.57950E-01 0.76851E-01 0.14607     0.27889     0.42584    
 0.53725     0.60357     0.62559     0.60357     0.53725     0.42584     0.27889     0.14607     0.76851E-01 0.57950E-01
 0.68223E-01 0.10806     0.17441     0.23021     0.47941     0.45431     0.37643     0.25043     0.13325     0.76853E-01
 0.67303E-01 0.90313E-01 0.14622     0.22345     0.29145     0.33322     0.34712     0.33322     0.29145     0.22345    
 0.14622     0.90313E-01 0.67303E-01 0.76853E-01 0.13325     0.25043     0.37643     0.45431     0.68241     0.66236    
 0.59756     0.47256     0.29193     0.14608     0.90315E-01 0.89316E-01 0.11292     0.14611     0.17831     0.19974    
 0.20689     0.19974     0.17831     0.14611     0.11292     0.89316E-01 0.90315E-01 0.14608     0.29193     0.47256    
 0.59756     0.66236     0.79054     0.78178     0.74779     0.66251     0.49290     0.27890     0.14622     0.11293    
 0.12747     0.15916     0.19550     0.22301     0.23263     0.22301     0.19550     0.15916     0.12747     0.11293    
 0.14622     0.27890     0.49290     0.66251     0.74779     0.78178     0.81736     0.81893     0.81358     0.77436    
 0.65149     0.42585     0.22346     0.14611     0.15916     0.21437     0.27803     0.32331     0.33841     0.32331    
 0.27803     0.21437     0.15916     0.14611     0.22346     0.42585     0.65149     0.77436     0.81358     0.81893    
 0.78363     0.79972     0.82542     0.82304     0.74696     0.53726     0.29146     0.17832     0.19551     0.27803    
 0.35894     0.40667     0.42124     0.40667     0.35894     0.27803     0.19551     0.17832     0.29146     0.53726    
 0.74696     0.82304     0.82542     0.79972     0.71081     0.74783     0.81112     0.83840     0.79261     0.60358    
 0.33323     0.19974     0.22301     0.32331     0.40667     0.44747     0.45896     0.44747     0.40667     0.32331    
 0.22301     0.19974     0.33323     0.60358     0.79261     0.83840     0.81112     0.74783     0.80056     0.81478    
 0.83654     0.82730     0.72606     0.47366     0.26028     0.24347     0.36698     0.46334     0.48202     0.47223    
 0.46583     0.47223     0.48202     0.46334     0.36698     0.24347     0.26028     0.47366     0.72606     0.82730    
 0.83654     0.81478     0.80942     0.82017     0.83496     0.81805     0.70706     0.45554     0.25107     0.23372    
 0.35326     0.45454     0.48120     0.47685     0.47223     0.47685     0.48120     0.45454     0.35326     0.23372    
 0.25107     0.45554     0.70706     0.81805     0.83496     0.82017     0.82035     0.82381     0.82238     0.78378    
 0.64663     0.40354     0.22489     0.20687     0.31076     0.42033     0.46931     0.48120     0.48202     0.48120    
 0.46931     0.42033     0.31076     0.20687     0.22489     0.40354     0.64663     0.78378     0.82238     0.82381    
 0.80597     0.80177     0.77945     0.70671     0.54006     0.32147     0.18449     0.17034     0.24496     0.34740    
 0.42032     0.45453     0.46334     0.45453     0.42032     0.34740     0.24496     0.17034     0.18449     0.32147    
 0.54006     0.70671     0.77945     0.80177     0.74071     0.72743     0.67876     0.57034     0.39206     0.21781    
 0.13633     0.13437     0.17800     0.24496     0.31075     0.35326     0.36698     0.35326     0.31075     0.24496    
 0.17800     0.13437     0.13633     0.21781     0.39206     0.57034     0.67876     0.72743     0.59912     0.57683    
 0.50761     0.38349     0.22752     0.12427     0.94704E-01 0.10593     0.13436     0.17033     0.20686     0.23372    
 0.24347     0.23372     0.20686     0.17033     0.13436     0.10593     0.94704E-01 0.12427     0.22752     0.38349    
 0.50761     0.57683     0.39318     0.36867     0.29773     0.19439     0.10824     0.71790E-01 0.71331E-01 0.94702E-01
 0.13633     0.18448     0.22488     0.25106     0.26027     0.25106     0.22488     0.18448     0.13633     0.94702E-01
 0.71331E-01 0.71790E-01 0.10824     0.19439     0.29773     0.36867     0.18922     0.17431     0.13287     0.85556E-01
 0.58455E-01 0.54112E-01 0.71788E-01 0.12427     0.21781     0.32146     0.40353     0.45553     0.47366     0.45553    
 0.40353     0.32146     0.21781     0.12427     0.71788E-01 0.54112E-01 0.58455E-01 0.85556E-01 0.13287     0.17431    
 0.83307E-01 0.78251E-01 0.63112E-01 0.48338E-01 0.45141E-01 0.58454E-01 0.10823     0.22752     0.39205     0.54005    
 0.64663     0.70706     0.72606     0.70706     0.64663     0.54005     0.39205     0.22752     0.10823     0.58454E-01
 0.45141E-01 0.48338E-01 0.63112E-01 0.78251E-01 0.46300E-01 0.44629E-01 0.39793E-01 0.38329E-01 0.48337E-01 0.85553E-01
 0.19439     0.38349     0.57034     0.70671     0.78378     0.81805     0.82730     0.81805     0.78378     0.70671    
 0.57034     0.38349     0.19439     0.85553E-01 0.48337E-01 0.38329E-01 0.39793E-01 0.44629E-01 0.33360E-01 0.32974E-01
 0.33100E-01 0.39792E-01 0.63110E-01 0.13287     0.29772     0.50760     0.67876     0.77945     0.82238     0.83496    
 0.83654     0.83496     0.82238     0.77945     0.67876     0.50760     0.29772     0.13287     0.63110E-01 0.39792E-01
 0.33100E-01 0.32974E-01 0.30243E-01 0.30347E-01 0.32974E-01 0.44628E-01 0.78248E-01 0.17431     0.36867     0.57683    
 0.72743     0.80177     0.82381     0.82017     0.81478     0.82017     0.82381     0.80177     0.72743     0.57683    
 0.36867     0.17431     0.78248E-01 0.44628E-01 0.32974E-01 0.30347E-01 0.30158E-01 0.30243E-01 0.33359E-01 0.46298E-01
 0.83303E-01 0.18922     0.39317     0.59912     0.74071     0.80597     0.82036     0.80942     0.80056     0.80942    
 0.82036     0.80597     0.74071     0.59912     0.39317     0.18922     0.83303E-01 0.46298E-01 0.33359E-01 0.30243E-01
 0.30243E-01 0.30347E-01 0.32974E-01 0.44628E-01 0.78248E-01 0.17431     0.36867     0.57683     0.72743     0.80177    
 0.82381     0.82017     0.81478     0.82017     0.82381     0.80177     0.72743     0.57683     0.36867     0.17431    
 0.78248E-01 0.44628E-01 0.32974E-01 0.30347E-01 0.33360E-01 0.32974E-01 0.33100E-01 0.39792E-01 0.63110E-01 0.13287    
 0.29772     0.50760     0.67876     0.77945     0.82238     0.83496     0.83654     0.83496     0.82238     0.77945    
 0.67876     0.50760     0.29772     0.13287     0.63110E-01 0.39792E-01 0.33100E-01 0.32974E-01 0.46300E-01 0.44629E-01
 0.39793E-01 0.38329E-01 0.48337E-01 0.85553E-01 0.19439     0.38349     0.57034     0.70671     0.78378     0.81805    
 0.82730     0.81805     0.78378     0.70671     0.57034     0.38349     0.19439     0.85553E-01 0.48337E-01 0.38329E-01
 0.39793E-01 0.44629E-01 0.83307E-01 0.78251E-01 0.63112E-01 0.48338E-01 0.45141E-01 0.58454E-01 0.10823     0.22752    
 0.39205     0.54005     0.64663     0.70706     0.72606     0.70706     0.64663     0.54005     0.39205     0.22752    
 0.10823     0.58454E-01 0.45141E-01 0.48338E-01 0.63112E-01 0.78251E-01 0.18922     0.17431     0.13287     0.85556E-01
 0.58455E-01 0.54112E-01 0.71788E-01 0.12427     0.21781     0.32146     0.40353     0.45553     0.47366     0.45553    
 0.40353     0.32146     0.21781     0.12427     0.71788E-01 0.54112E-01 0.58455E-01 0.85556E-01 0.13287     0.17431    
 0.39318     0.36867     0.29773     0.19439     0.10824     0.71790E-01 0.71331E-01 0.94702E-01 0.13633     0.18448    
 0.22488     0.25106     0.26027     0.25106     0.22488     0.18448     0.13633     0.94702E-01 0.71331E-01 0.71790E-01
 0.10824     0.19439     0.29773     0.36867     0.59912     0.57683     0.50761     0.38349     0.22752     0.12427    
 0.94704E-01 0.10593     0.13436     0.17033     0.20686     0.23372     0.24347     0.23372     0.20686     0.17033    
 0.13436     0.10593     0.94704E-01 0.12427     0.22752     0.38349     0.50761     0.57683     0.74071     0.72743    
 0.67876     0.57034     0.39206     0.21781     0.13633     0.13437     0.17800     0.24496     0.31075     0.35326    
 0.36698     0.35326     0.31075     0.24496     0.17800     0.13437     0.13633     0.21781     0.39206     0.57034    
 0.67876     0.72743     0.80597     0.80177     0.77945     0.70671     0.54006     0.32147     0.18449     0.17034    
 0.24496     0.34740     0.42032     0.45453     0.46334     0.45453     0.42032     0.34740     0.24496     0.17034    
 0.18449     0.32147     0.54006     0.70671     0.77945     0.80177     0.82035     0.82381     0.82238     0.78378    
 0.64663     0.40354     0.22489     0.20687     0.31076     0.42033     0.46931     0.48120     0.48202     0.48120    
 0.46931     0.42033     0.31076     0.20687     0.22489     0.40354     0.64663     0.78378     0.82238     0.82381    
 0.80942     0.82017     0.83496     0.81805     0.70706     0.45554     0.25107     0.23372     0.35326     0.45454    
 0.48120     0.47685     0.47223     0.47685     0.48120     0.45454     0.35326     0.23372     0.25107     0.45554    
 0.70706     0.81805     0.83496     0.82017     0.82704     0.82680     0.81366     0.74584     0.55685     0.31825    
 0.23969     0.34886     0.47274     0.47639     0.42210     0.37035     0.35062     0.37035     0.42210     0.47639    
 0.47274     0.34886     0.23969     0.31825     0.55685     0.74584     0.81366     0.82680     0.82247     0.82077    
 0.80344     0.72863     0.53694     0.30693     0.23052     0.33540     0.46500     0.48003     0.43505     0.38859    
 0.37035     0.38859     0.43505     0.48003     0.46500     0.33540     0.23052     0.30693     0.53694     0.72863    
 0.80344     0.82077     0.80243     0.79672     0.76712     0.67290     0.47861     0.27507     0.20640     0.29654    
 0.43519     0.48179     0.46458     0.43505     0.42209     0.43505     0.46458     0.48179     0.43519     0.29654    
 0.20640     0.27507     0.47861     0.67290     0.76712     0.79672     0.74947     0.73746     0.68885     0.57176    
 0.38706     0.22629     0.17403     0.23914     0.36948     0.45603     0.48179     0.48003     0.47638     0.48003    
 0.48179     0.45603     0.36948     0.23914     0.17403     0.22629     0.38706     0.57176     0.68885     0.73746    
 0.63947     0.62031     0.55467     0.42945     0.27293     0.16559     0.13841     0.17863     0.27014     0.36947    
 0.43519     0.46500     0.47274     0.46500     0.43519     0.36947     0.27014     0.17863     0.13841     0.16559    
 0.27293     0.42945     0.55467     0.62031     0.46745     0.44411     0.37483     0.26649     0.16046     0.10719    
 0.10371     0.13102     0.17863     0.23913     0.29654     0.33540     0.34886     0.33540     0.29654     0.23913    
 0.17863     0.13102     0.10371     0.10719     0.16046     0.26649     0.37483     0.44411     0.26454     0.24516    
 0.19493     0.13186     0.84325E-01 0.68083E-01 0.77389E-01 0.10371     0.13841     0.17403     0.20639     0.23051    
 0.23968     0.23051     0.20639     0.17403     0.13841     0.10371     0.77389E-01 0.68083E-01 0.84325E-01 0.13186    
 0.19493     0.24516     0.11526     0.10746     0.87058E-01 0.63377E-01 0.49386E-01 0.50438E-01 0.68081E-01 0.10719    
 0.16558     0.22628     0.27506     0.30692     0.31824     0.30692     0.27506     0.22628     0.16558     0.10719    
 0.68081E-01 0.50438E-01 0.49386E-01 0.63377E-01 0.87058E-01 0.10746     0.53845E-01 0.51816E-01 0.45023E-01 0.37553E-01
 0.37336E-01 0.49384E-01 0.84322E-01 0.16046     0.27292     0.38705     0.47860     0.53694     0.55685     0.53694    
 0.47860     0.38705     0.27292     0.16046     0.84322E-01 0.49384E-01 0.37336E-01 0.37553E-01 0.45023E-01 0.51816E-01
 0.32241E-01 0.31854E-01 0.29827E-01 0.29442E-01 0.37553E-01 0.63375E-01 0.13185     0.26649     0.42945     0.57175    
 0.67290     0.72863     0.74584     0.72863     0.67290     0.57175     0.42945     0.26649     0.13185     0.63375E-01
 0.37553E-01 0.29442E-01 0.29827E-01 0.31854E-01 0.25333E-01 0.25549E-01 0.25831E-01 0.29827E-01 0.45021E-01 0.87055E-01
 0.19493     0.37483     0.55467     0.68885     0.76712     0.80344     0.81366     0.80344     0.76712     0.68885    
 0.55467     0.37483     0.19493     0.87055E-01 0.45021E-01 0.29827E-01 0.25831E-01 0.25549E-01 0.24102E-01 0.24416E-01
 0.25549E-01 0.31853E-01 0.51814E-01 0.10746     0.24515     0.44411     0.62031     0.73746     0.79672     0.82077    
 0.82680     0.82077     0.79672     0.73746     0.62031     0.44411     0.24516     0.10746     0.51814E-01 0.31853E-01
 0.25548E-01 0.24416E-01 0.23856E-01 0.24102E-01 0.25332E-01 0.32240E-01 0.53843E-01 0.11525     0.26453     0.46744    
 0.63947     0.74947     0.80243     0.82247     0.82704     0.82247     0.80243     0.74947     0.63947     0.46744    
 0.26453     0.11525     0.53843E-01 0.32240E-01 0.25332E-01 0.24102E-01 0.24102E-01 0.24416E-01 0.25549E-01 0.31853E-01
 0.51814E-01 0.10746     0.24515     0.44411     0.62031     0.73746     0.79672     0.82077     0.82680     0.82077    
 0.79672     0.73746     0.62031     0.44411     0.24516     0.10746     0.51814E-01 0.31853E-01 0.25548E-01 0.24416E-01
 0.25333E-01 0.25549E-01 0.25831E-01 0.29827E-01 0.45021E-01 0.87055E-01 0.19493     0.37483     0.55467     0.68885    
 0.76712     0.80344     0.81366     0.80344     0.76712     0.68885     0.55467     0.37483     0.19493     0.87055E-01
 0.45021E-01 0.29827E-01 0.25831E-01 0.25549E-01 0.32241E-01 0.31854E-01 0.29827E-01 0.29442E-01 0.37553E-01 0.63375E-01
 0.13185     0.26649     0.42945     0.57175     0.67290     0.72863     0.74584     0.72863     0.67290     0.57175    
 0.42945     0.26649     0.13185     0.63375E-01 0.37553E-01 0.29442E-01 0.29827E-01 0.31854E-01 0.53845E-01 0.51816E-01
 0.45023E-01 0.37553E-01 0.37336E-01 0.49384E-01 0.84322E-01 0.16046     0.27292     0.38705     0.47860     0.53694    
 0.55685     0.53694     0.47860     0.38705     0.27292     0.16046     0.84322E-01 0.49384E-01 0.37336E-01 0.37553E-01
 0.45023E-01 0.51816E-01 0.11526     0.10746     0.87058E-01 0.63377E-01 0.49386E-01 0.50438E-01 0.68081E-01 0.10719    
 0.16558     0.22628     0.27506     0.30692     0.31824     0.30692     0.27506     0.22628     0.16558     0.10719    
 0.68081E-01 0.50438E-01 0.49386E-01 0.63377E-01 0.87058E-01 0.10746     0.26454     0.24516     0.19493     0.13186    
 0.84325E-01 0.68083E-01 0.77389E-01 0.10371     0.13841     0.17403     0.20639     0.23051     0.23968     0.23051    
 0.20639     0.17403     0.13841     0.10371     0.77389E-01 0.68083E-01 0.84325E-01 0.13186     0.19493     0.24516    
 0.46745     0.44411     0.37483     0.26649     0.16046     0.10719     0.10371     0.13102     0.17863     0.23913    
 0.29654     0.33540     0.34886     0.33540     0.29654     0.23913     0.17863     0.13102     0.10371     0.10719    
 0.16046     0.26649     0.37483     0.44411     0.63947     0.62031     0.55467     0.42945     0.27293     0.16559    
 0.13841     0.17863     0.27014     0.36947     0.43519     0.46500     0.47274     0.46500     0.43519     0.36947    
 0.27014     0.17863     0.13841     0.16559     0.27293     0.42945     0.55467     0.62031     0.74947     0.73746    
 0.68885     0.57176     0.38706     0.22629     0.17403     0.23914     0.36948     0.45603     0.48179     0.48003    
 0.47638     0.48003     0.48179     0.45603     0.36948     0.23914     0.17403     0.22629     0.38706     0.57176    
 0.68885     0.73746     0.80243     0.79672     0.76712     0.67290     0.47861     0.27507     0.20640     0.29654    
 0.43519     0.48179     0.46458     0.43505     0.42209     0.43505     0.46458     0.48179     0.43519     0.29654    
 0.20640     0.27507     0.47861     0.67290     0.76712     0.79672     0.82247     0.82077     0.80344     0.72863    
 0.53694     0.30693     0.23052     0.33540     0.46500     0.48003     0.43505     0.38859     0.37035     0.38859    
 0.43505     0.48003     0.46500     0.33540     0.23052     0.30693     0.53694     0.72863     0.80344     0.82077    
 0.77072     0.75773     0.70148     0.56215     0.35797     0.23260     0.29006     0.45344     0.48842     0.40823    
 0.30511     0.23929     0.21980     0.23929     0.30511     0.40823     0.48842     0.45344     0.29006     0.23260    
 0.35797     0.56215     0.70148     0.75773     0.75686     0.74247     0.68264     0.54193     0.34467     0.22482    
 0.27835     0.44279     0.49060     0.42276     0.32624     0.26015     0.23929     0.26015     0.32624     0.42276    
 0.49060     0.44279     0.27835     0.22482     0.34467     0.54193     0.68264     0.74247     0.70989     0.69194    
 0.62362     0.48206     0.30597     0.20383     0.24721     0.40781     0.48927     0.45766     0.38530     0.32624    
 0.30511     0.32624     0.38530     0.45766     0.48927     0.40781     0.24721     0.20383     0.30597     0.48206    
 0.62362     0.69194     0.61681     0.59534     0.52065     0.38671     0.24631     0.17433     0.20588     0.34268    
 0.46150     0.48573     0.45766     0.42276     0.40823     0.42276     0.45766     0.48573     0.46150     0.34268    
 0.20588     0.17433     0.24631     0.38671     0.52065     0.59534     0.47139     0.44894     0.37771     0.26878    
 0.17608     0.13919     0.16264     0.25401     0.37906     0.46150     0.48927     0.49060     0.48841     0.49060    
 0.48927     0.46150     0.37906     0.25401     0.16264     0.13919     0.17608     0.26878     0.37771     0.44894    
 0.29014     0.27150     0.22082     0.15732     0.11200     0.10086     0.12135     0.17243     0.25401     0.34268    
 0.40781     0.44279     0.45344     0.44279     0.40781     0.34268     0.25401     0.17243     0.12135     0.10086    
 0.11200     0.15732     0.22082     0.27150     0.13674     0.12785     0.10685     0.83299E-01 0.67207E-01 0.67471E-01
 0.86834E-01 0.12135     0.16264     0.20587     0.24721     0.27834     0.29005     0.27834     0.24721     0.20587    
 0.16264     0.12135     0.86834E-01 0.67471E-01 0.67207E-01 0.83299E-01 0.10685     0.12785     0.62744E-01 0.60252E-01
 0.54234E-01 0.46911E-01 0.42611E-01 0.47879E-01 0.67470E-01 0.10086     0.13918     0.17432     0.20383     0.22481    
 0.23259     0.22481     0.20383     0.17432     0.13918     0.10086     0.67470E-01 0.47879E-01 0.42611E-01 0.46911E-01
 0.54234E-01 0.60252E-01 0.36714E-01 0.36145E-01 0.34057E-01 0.31346E-01 0.32448E-01 0.42610E-01 0.67205E-01 0.11200    
 0.17607     0.24630     0.30597     0.34466     0.35797     0.34466     0.30597     0.24630     0.17607     0.11200    
 0.67205E-01 0.42610E-01 0.32448E-01 0.31346E-01 0.34057E-01 0.36145E-01 0.28785E-01 0.28761E-01 0.27692E-01 0.26782E-01
 0.31345E-01 0.46909E-01 0.83296E-01 0.15732     0.26878     0.38670     0.48205     0.54192     0.56214     0.54192    
 0.48205     0.38670     0.26878     0.15732     0.83296E-01 0.46909E-01 0.31345E-01 0.26782E-01 0.27692E-01 0.28761E-01
 0.29632E-01 0.29643E-01 0.28310E-01 0.27692E-01 0.34057E-01 0.54233E-01 0.10684     0.22082     0.37770     0.52065    
 0.62362     0.68264     0.70148     0.68264     0.62362     0.52065     0.37770     0.22082     0.10684     0.54233E-01
 0.34057E-01 0.27692E-01 0.28310E-01 0.29643E-01 0.32343E-01 0.31974E-01 0.29643E-01 0.28761E-01 0.36144E-01 0.60250E-01
 0.12784     0.27150     0.44894     0.59534     0.69194     0.74247     0.75773     0.74247     0.69194     0.59534    
 0.44894     0.27150     0.12784     0.60250E-01 0.36144E-01 0.28761E-01 0.29643E-01 0.31974E-01 0.32919E-01 0.32343E-01
 0.29632E-01 0.28784E-01 0.36713E-01 0.62742E-01 0.13674     0.29014     0.47139     0.61681     0.70989     0.75686    
 0.77072     0.75686     0.70989     0.61681     0.47139     0.29014     0.13674     0.62742E-01 0.36713E-01 0.28784E-01
 0.29632E-01 0.32343E-01 0.32343E-01 0.31974E-01 0.29643E-01 0.28761E-01 0.36144E-01 0.60250E-01 0.12784     0.27150    
 0.44894     0.59534     0.69194     0.74247     0.75773     0.74247     0.69194     0.59534     0.44894     0.27150    
 0.12784     0.60250E-01 0.36144E-01 0.28761E-01 0.29643E-01 0.31974E-01 0.29632E-01 0.29643E-01 0.28310E-01 0.27692E-01
 0.34057E-01 0.54233E-01 0.10684     0.22082     0.37770     0.52065     0.62362     0.68264     0.70148     0.68264    
 0.62362     0.52065     0.37770     0.22082     0.10684     0.54233E-01 0.34057E-01 0.27692E-01 0.28310E-01 0.29643E-01
 0.28785E-01 0.28761E-01 0.27692E-01 0.26782E-01 0.31345E-01 0.46909E-01 0.83296E-01 0.15732     0.26878     0.38670    
 0.48205     0.54192     0.56214     0.54192     0.48205     0.38670     0.26878     0.15732     0.83296E-01 0.46909E-01
 0.31345E-01 0.26782E-01 0.27692E-01 0.28761E-01 0.36714E-01 0.36145E-01 0.34057E-01 0.31346E-01 0.32448E-01 0.42610E-01
 0.67205E-01 0.11200     0.17607     0.24630     0.30597     0.34466     0.35797     0.34466     0.30597     0.24630    
 0.17607     0.11200     0.67205E-01 0.42610E-01 0.32448E-01 0.31346E-01 0.34057E-01 0.36145E-01 0.62744E-01 0.60252E-01
 0.54234E-01 0.46911E-01 0.42611E-01 0.47879E-01 0.67470E-01 0.10086     0.13918     0.17432     0.20383     0.22481    
 0.23259     0.22481     0.20383     0.17432     0.13918     0.10086     0.67470E-01 0.47879E-01 0.42611E-01 0.46911E-01
 0.54234E-01 0.60252E-01 0.13674     0.12785     0.10685     0.83299E-01 0.67207E-01 0.67471E-01 0.86834E-01 0.12135    
 0.16264     0.20587     0.24721     0.27834     0.29005     0.27834     0.24721     0.20587     0.16264     0.12135    
 0.86834E-01 0.67471E-01 0.67207E-01 0.83299E-01 0.10685     0.12785     0.29014     0.27150     0.22082     0.15732    
 0.11200     0.10086     0.12135     0.17243     0.25401     0.34268     0.40781     0.44279     0.45344     0.44279    
 0.40781     0.34268     0.25401     0.17243     0.12135     0.10086     0.11200     0.15732     0.22082     0.27150    
 0.47139     0.44894     0.37771     0.26878     0.17608     0.13919     0.16264     0.25401     0.37906     0.46150    
 0.48927     0.49060     0.48841     0.49060     0.48927     0.46150     0.37906     0.25401     0.16264     0.13919    
 0.17608     0.26878     0.37771     0.44894     0.61681     0.59534     0.52065     0.38671     0.24631     0.17433    
 0.20588     0.34268     0.46150     0.48573     0.45766     0.42276     0.40823     0.42276     0.45766     0.48573    
 0.46150     0.34268     0.20588     0.17433     0.24631     0.38671     0.52065     0.59534     0.70989     0.69194    
 0.62362     0.48206     0.30597     0.20383     0.24721     0.40781     0.48927     0.45766     0.38530     0.32624    
 0.30511     0.32624     0.38530     0.45766     0.48927     0.40781     0.24721     0.20383     0.30597     0.48206    
 0.62362     0.69194     0.75686     0.74247     0.68264     0.54193     0.34467     0.22482     0.27835     0.44279    
 0.49060     0.42276     0.32624     0.26015     0.23929     0.26015     0.32624     0.42276     0.49060     0.44279    
 0.27835     0.22482     0.34467     0.54193     0.68264     0.74247     0.61044     0.58218     0.48881     0.34504    
 0.22611     0.22194     0.37757     0.50161     0.45464     0.32373     0.21883     0.19270     0.20319     0.19270    
 0.21883     0.32373     0.45464     0.50161     0.37757     0.22194     0.22611     0.34504     0.48881     0.58218    
 0.58891     0.56041     0.46810     0.33005     0.21868     0.21462     0.36470     0.49758     0.46509     0.34413    
 0.23597     0.19453     0.19270     0.19453     0.23597     0.34413     0.46509     0.49758     0.36470     0.21462    
 0.21868     0.33005     0.46810     0.56041     0.52231     0.49424     0.40727     0.28659     0.19709     0.19532    
 0.32749     0.47976     0.48831     0.40062     0.29787     0.23597     0.21883     0.23597     0.29787     0.40062    
 0.48831     0.47976     0.32749     0.19532     0.19709     0.28659     0.40727     0.49424     0.40859     0.38403    
 0.31173     0.22109     0.16408     0.16955     0.27160     0.43201     0.49935     0.46876     0.40062     0.34412    
 0.32373     0.34412     0.40062     0.46876     0.49935     0.43201     0.27160     0.16955     0.16408     0.22109    
 0.31173     0.38403     0.26167     0.24530     0.20012     0.14943     0.12530     0.14006     0.20841     0.34106    
 0.45911     0.49935     0.48831     0.46509     0.45464     0.46509     0.48831     0.49935     0.45911     0.34106    
 0.20841     0.14006     0.12530     0.14943     0.20012     0.24530     0.13347     0.12666     0.10938     0.91901E-01
 0.87859E-01 0.10560     0.14975     0.23084     0.34106     0.43201     0.47976     0.49758     0.50161     0.49758    
 0.47976     0.43201     0.34106     0.23084     0.14975     0.10560     0.87859E-01 0.91901E-01 0.10938     0.12666    
 0.65990E-01 0.64106E-01 0.60093E-01 0.56812E-01 0.58175E-01 0.71175E-01 0.10206     0.14975     0.20841     0.27160    
 0.32749     0.36470     0.37757     0.36470     0.32749     0.27160     0.20841     0.14975     0.10206     0.71175E-01
 0.58175E-01 0.56812E-01 0.60093E-01 0.64106E-01 0.41895E-01 0.41217E-01 0.40092E-01 0.39331E-01 0.40322E-01 0.48718E-01
 0.71174E-01 0.10560     0.14006     0.16955     0.19531     0.21461     0.22193     0.21461     0.19531     0.16955    
 0.14006     0.10560     0.71174E-01 0.48718E-01 0.40322E-01 0.39331E-01 0.40092E-01 0.41217E-01 0.37124E-01 0.36538E-01
 0.35172E-01 0.33489E-01 0.33587E-01 0.40321E-01 0.58173E-01 0.87856E-01 0.12529     0.16408     0.19708     0.21867    
 0.22611     0.21867     0.19708     0.16408     0.12529     0.87856E-01 0.58173E-01 0.40321E-01 0.33587E-01 0.33489E-01
 0.35172E-01 0.36538E-01 0.44845E-01 0.43887E-01 0.40588E-01 0.35572E-01 0.33489E-01 0.39330E-01 0.56811E-01 0.91898E-01
 0.14942     0.22109     0.28658     0.33004     0.34503     0.33004     0.28658     0.22109     0.14942     0.91898E-01
 0.56811E-01 0.39330E-01 0.33489E-01 0.35572E-01 0.40588E-01 0.43887E-01 0.62299E-01 0.59984E-01 0.51803E-01 0.40588E-01
 0.35171E-01 0.40091E-01 0.60091E-01 0.10938     0.20011     0.31173     0.40726     0.46809     0.48880     0.46809    
 0.40726     0.31173     0.20011     0.10938     0.60091E-01 0.40091E-01 0.35171E-01 0.40588E-01 0.51803E-01 0.59984E-01
 0.77363E-01 0.73304E-01 0.59984E-01 0.43887E-01 0.36537E-01 0.41216E-01 0.64104E-01 0.12665     0.24530     0.38403    
 0.49424     0.56041     0.58218     0.56041     0.49424     0.38403     0.24530     0.12665     0.64104E-01 0.41216E-01
 0.36537E-01 0.43887E-01 0.59984E-01 0.73304E-01 0.82079E-01 0.77363E-01 0.62299E-01 0.44845E-01 0.37124E-01 0.41894E-01
 0.65988E-01 0.13347     0.26167     0.40858     0.52230     0.58890     0.61044     0.58890     0.52230     0.40858    
 0.26167     0.13347     0.65988E-01 0.41894E-01 0.37124E-01 0.44845E-01 0.62299E-01 0.77363E-01 0.77363E-01 0.73304E-01
 0.59984E-01 0.43887E-01 0.36537E-01 0.41216E-01 0.64104E-01 0.12665     0.24530     0.38403     0.49424     0.56041    
 0.58218     0.56041     0.49424     0.38403     0.24530     0.12665     0.64104E-01 0.41216E-01 0.36537E-01 0.43887E-01
 0.59984E-01 0.73304E-01 0.62299E-01 0.59984E-01 0.51803E-01 0.40588E-01 0.35171E-01 0.40091E-01 0.60091E-01 0.10938    
 0.20011     0.31173     0.40726     0.46809     0.48880     0.46809     0.40726     0.31173     0.20011     0.10938    
 0.60091E-01 0.40091E-01 0.35171E-01 0.40588E-01 0.51803E-01 0.59984E-01 0.44845E-01 0.43887E-01 0.40588E-01 0.35572E-01
 0.33489E-01 0.39330E-01 0.56811E-01 0.91898E-01 0.14942     0.22109     0.28658     0.33004     0.34503     0.33004    
 0.28658     0.22109     0.14942     0.91898E-01 0.56811E-01 0.39330E-01 0.33489E-01 0.35572E-01 0.40588E-01 0.43887E-01
 0.37124E-01 0.36538E-01 0.35172E-01 0.33489E-01 0.33587E-01 0.40321E-01 0.58173E-01 0.87856E-01 0.12529     0.16408    
 0.19708     0.21867     0.22611     0.21867     0.19708     0.16408     0.12529     0.87856E-01 0.58173E-01 0.40321E-01
 0.33587E-01 0.33489E-01 0.35172E-01 0.36538E-01 0.41895E-01 0.41217E-01 0.40092E-01 0.39331E-01 0.40322E-01 0.48718E-01
 0.71174E-01 0.10560     0.14006     0.16955     0.19531     0.21461     0.22193     0.21461     0.19531     0.16955    
 0.14006     0.10560     0.71174E-01 0.48718E-01 0.40322E-01 0.39331E-01 0.40092E-01 0.41217E-01 0.65990E-01 0.64106E-01
 0.60093E-01 0.56812E-01 0.58175E-01 0.71175E-01 0.10206     0.14975     0.20841     0.27160     0.32749     0.36470    
 0.37757     0.36470     0.32749     0.27160     0.20841     0.14975     0.10206     0.71175E-01 0.58175E-01 0.56812E-01
 0.60093E-01 0.64106E-01 0.13347     0.12666     0.10938     0.91901E-01 0.87859E-01 0.10560     0.14975     0.23084    
 0.34106     0.43201     0.47976     0.49758     0.50161     0.49758     0.47976     0.43201     0.34106     0.23084    
 0.14975     0.10560     0.87859E-01 0.91901E-01 0.10938     0.12666     0.26167     0.24530     0.20012     0.14943    
 0.12530     0.14006     0.20841     0.34106     0.45911     0.49935     0.48831     0.46509     0.45464     0.46509    
 0.48831     0.49935     0.45911     0.34106     0.20841     0.14006     0.12530     0.14943     0.20012     0.24530    
 0.40859     0.38403     0.31173     0.22109     0.16408     0.16955     0.27160     0.43201     0.49935     0.46876    
 0.40062     0.34412     0.32373     0.34412     0.40062     0.46876     0.49935     0.43201     0.27160     0.16955    
 0.16408     0.22109     0.31173     0.38403     0.52231     0.49424     0.40727     0.28659     0.19709     0.19532    
 0.32749     0.47976     0.48831     0.40062     0.29787     0.23597     0.21883     0.23597     0.29787     0.40062    
 0.48831     0.47976     0.32749     0.19532     0.19709     0.28659     0.40727     0.49424     0.58891     0.56041    
 0.46810     0.33005     0.21868     0.21462     0.36470     0.49758     0.46509     0.34413     0.23597     0.19453    
 0.19270     0.19453     0.23597     0.34413     0.46509     0.49758     0.36470     0.21462     0.21868     0.33005    
 0.46810     0.56041     0.38045     0.34843     0.26942     0.19745     0.17709     0.26217     0.45184     0.51663    
 0.42274     0.27524     0.20982     0.34022     0.56107     0.34022     0.20982     0.27524     0.42274     0.51663    
 0.45184     0.26217     0.17709     0.19745     0.26942     0.34843     0.35681     0.32682     0.25374     0.18889    
 0.17251     0.25337     0.44043     0.51785     0.43817     0.29561     0.21140     0.25374     0.34022     0.25374    
 0.21140     0.29561     0.43817     0.51785     0.44043     0.25337     0.17251     0.18889     0.25374     0.32682    
 0.28945     0.26611     0.21070     0.16479     0.15907     0.22925     0.40404     0.51474     0.47675     0.35892    
 0.25251     0.21140     0.20982     0.21140     0.25251     0.35892     0.47675     0.51474     0.40404     0.22925    
 0.15907     0.16479     0.21070     0.26611     0.19552     0.18271     0.15253     0.13020     0.13753     0.19550    
 0.34084     0.48754     0.51306     0.44877     0.35892     0.29561     0.27524     0.29561     0.35892     0.44877    
 0.51306     0.48754     0.34084     0.19550     0.13753     0.13020     0.15253     0.18271     0.11149     0.10758    
 0.98198E-01 0.93836E-01 0.10941     0.15726     0.26061     0.41146     0.50561     0.51306     0.47675     0.43817    
 0.42274     0.43817     0.47675     0.51306     0.50561     0.41146     0.26061     0.15726     0.10941     0.93836E-01
 0.98198E-01 0.10758     0.63474E-01 0.63114E-01 0.62454E-01 0.64981E-01 0.79591E-01 0.11648     0.18407     0.29167    
 0.41146     0.48754     0.51474     0.51785     0.51663     0.51785     0.51474     0.48754     0.41146     0.29167    
 0.18407     0.11648     0.79591E-01 0.64981E-01 0.62454E-01 0.63114E-01 0.45901E-01 0.45890E-01 0.46236E-01 0.48422E-01
 0.56694E-01 0.79134E-01 0.12233     0.18407     0.26061     0.34084     0.40404     0.44043     0.45184     0.44043    
 0.40404     0.34084     0.26061     0.18407     0.12233     0.79134E-01 0.56694E-01 0.48422E-01 0.46236E-01 0.45890E-01
 0.47419E-01 0.46647E-01 0.45249E-01 0.44591E-01 0.46324E-01 0.55554E-01 0.79133E-01 0.11648     0.15726     0.19550    
 0.22925     0.25337     0.26216     0.25337     0.22925     0.19550     0.15726     0.11648     0.79133E-01 0.55554E-01
 0.46324E-01 0.44591E-01 0.45249E-01 0.46647E-01 0.68555E-01 0.66066E-01 0.60385E-01 0.53506E-01 0.47108E-01 0.46323E-01
 0.56694E-01 0.79589E-01 0.10941     0.13752     0.15907     0.17250     0.17709     0.17250     0.15907     0.13752    
 0.10941     0.79589E-01 0.56694E-01 0.46323E-01 0.47108E-01 0.53506E-01 0.60385E-01 0.66066E-01 0.11679     0.11044    
 0.94421E-01 0.73001E-01 0.53506E-01 0.44591E-01 0.48421E-01 0.64979E-01 0.93833E-01 0.13020     0.16478     0.18888    
 0.19744     0.18888     0.16478     0.13020     0.93833E-01 0.64979E-01 0.48421E-01 0.44591E-01 0.53506E-01 0.73001E-01
 0.94421E-01 0.11044     0.17972     0.16763     0.13610     0.94422E-01 0.60385E-01 0.45248E-01 0.46235E-01 0.62452E-01
 0.98195E-01 0.15252     0.21069     0.25373     0.26942     0.25373     0.21069     0.15252     0.98195E-01 0.62452E-01
 0.46235E-01 0.45248E-01 0.60385E-01 0.94422E-01 0.13610     0.16763     0.22786     0.21138     0.16763     0.11044    
 0.66066E-01 0.46646E-01 0.45889E-01 0.63112E-01 0.10758     0.18271     0.26610     0.32682     0.34843     0.32682    
 0.26610     0.18271     0.10758     0.63112E-01 0.45889E-01 0.46646E-01 0.66066E-01 0.11044     0.16763     0.21138    
 0.24586     0.22786     0.17972     0.11679     0.68556E-01 0.47418E-01 0.45900E-01 0.63472E-01 0.11148     0.19552    
 0.28944     0.35681     0.38044     0.35681     0.28944     0.19552     0.11148     0.63472E-01 0.45900E-01 0.47418E-01
 0.68556E-01 0.11679     0.17972     0.22786     0.22786     0.21138     0.16763     0.11044     0.66066E-01 0.46646E-01
 0.45889E-01 0.63112E-01 0.10758     0.18271     0.26610     0.32682     0.34843     0.32682     0.26610     0.18271    
 0.10758     0.63112E-01 0.45889E-01 0.46646E-01 0.66066E-01 0.11044     0.16763     0.21138     0.17972     0.16763    
 0.13610     0.94422E-01 0.60385E-01 0.45248E-01 0.46235E-01 0.62452E-01 0.98195E-01 0.15252     0.21069     0.25373    
 0.26942     0.25373     0.21069     0.15252     0.98195E-01 0.62452E-01 0.46235E-01 0.45248E-01 0.60385E-01 0.94422E-01
 0.13610     0.16763     0.11679     0.11044     0.94421E-01 0.73001E-01 0.53506E-01 0.44591E-01 0.48421E-01 0.64979E-01
 0.93833E-01 0.13020     0.16478     0.18888     0.19744     0.18888     0.16478     0.13020     0.93833E-01 0.64979E-01
 0.48421E-01 0.44591E-01 0.53506E-01 0.73001E-01 0.94421E-01 0.11044     0.68555E-01 0.66066E-01 0.60385E-01 0.53506E-01
 0.47108E-01 0.46323E-01 0.56694E-01 0.79589E-01 0.10941     0.13752     0.15907     0.17250     0.17709     0.17250    
 0.15907     0.13752     0.10941     0.79589E-01 0.56694E-01 0.46323E-01 0.47108E-01 0.53506E-01 0.60385E-01 0.66066E-01
 0.47419E-01 0.46647E-01 0.45249E-01 0.44591E-01 0.46324E-01 0.55554E-01 0.79133E-01 0.11648     0.15726     0.19550    
 0.22925     0.25337     0.26216     0.25337     0.22925     0.19550     0.15726     0.11648     0.79133E-01 0.55554E-01
 0.46324E-01 0.44591E-01 0.45249E-01 0.46647E-01 0.45901E-01 0.45890E-01 0.46236E-01 0.48422E-01 0.56694E-01 0.79134E-01
 0.12233     0.18407     0.26061     0.34084     0.40404     0.44043     0.45184     0.44043     0.40404     0.34084    
 0.26061     0.18407     0.12233     0.79134E-01 0.56694E-01 0.48422E-01 0.46236E-01 0.45890E-01 0.63474E-01 0.63114E-01
 0.62454E-01 0.64981E-01 0.79591E-01 0.11648     0.18407     0.29167     0.41146     0.48754     0.51474     0.51785    
 0.51663     0.51785     0.51474     0.48754     0.41146     0.29167     0.18407     0.11648     0.79591E-01 0.64981E-01
 0.62454E-01 0.63114E-01 0.11149     0.10758     0.98198E-01 0.93836E-01 0.10941     0.15726     0.26061     0.41146    
 0.50561     0.51306     0.47675     0.43817     0.42274     0.43817     0.47675     0.51306     0.50561     0.41146    
 0.26061     0.15726     0.10941     0.93836E-01 0.98198E-01 0.10758     0.19552     0.18271     0.15253     0.13020    
 0.13753     0.19550     0.34084     0.48754     0.51306     0.44877     0.35892     0.29561     0.27524     0.29561    
 0.35892     0.44877     0.51306     0.48754     0.34084     0.19550     0.13753     0.13020     0.15253     0.18271    
 0.28945     0.26611     0.21070     0.16479     0.15907     0.22925     0.40404     0.51474     0.47675     0.35892    
 0.25251     0.21140     0.20982     0.21140     0.25251     0.35892     0.47675     0.51474     0.40404     0.22925    
 0.15907     0.16479     0.21070     0.26611     0.35681     0.32682     0.25374     0.18889     0.17251     0.25337    
 0.44043     0.51785     0.43817     0.29561     0.21140     0.25374     0.34022     0.25374     0.21140     0.29561    
 0.43817     0.51785     0.44043     0.25337     0.17251     0.18889     0.25374     0.32682     0.17230     0.15932    
 0.13725     0.13726     0.18038     0.31543     0.49849     0.53256     0.42366     0.27588     0.24687     0.60973    
 0.97630     0.60973     0.24687     0.27588     0.42366     0.53256     0.49849     0.31543     0.18038     0.13726    
 0.13725     0.15932     0.15828     0.14749     0.12943     0.13223     0.17563     0.30445     0.48870     0.53611    
 0.44063     0.29476     0.23292     0.38016     0.60973     0.38016     0.23292     0.29476     0.44063     0.53611    
 0.48870     0.30445     0.17563     0.13223     0.12943     0.14749     0.12323     0.11755     0.10898     0.11790    
 0.16142     0.27322     0.45523     0.53960     0.48428     0.35774     0.25538     0.23292     0.24687     0.23292    
 0.25538     0.35774     0.48428     0.53960     0.45523     0.27322     0.16142     0.11790     0.10898     0.11755    
 0.84523E-01 0.83449E-01 0.83563E-01 0.96780E-01 0.13791     0.22756     0.39084     0.52222     0.52950     0.45352    
 0.35774     0.29475     0.27588     0.29475     0.35774     0.45352     0.52950     0.52222     0.39084     0.22756    
 0.13791     0.96780E-01 0.83563E-01 0.83449E-01 0.58171E-01 0.59018E-01 0.62437E-01 0.74429E-01 0.10766     0.17630    
 0.30120     0.45536     0.53506     0.52950     0.48428     0.44063     0.42365     0.44063     0.48428     0.52950    
 0.53506     0.45536     0.30120     0.17630     0.10766     0.74429E-01 0.62437E-01 0.59018E-01 0.48935E-01 0.49739E-01
 0.52177E-01 0.59009E-01 0.79704E-01 0.12747     0.21143     0.33397     0.45536     0.52222     0.53960     0.53611    
 0.53256     0.53611     0.53960     0.52222     0.45536     0.33397     0.21143     0.12747     0.79704E-01 0.59009E-01
 0.52177E-01 0.49739E-01 0.57741E-01 0.57452E-01 0.56620E-01 0.56989E-01 0.64748E-01 0.89763E-01 0.13934     0.21143    
 0.30119     0.39084     0.45523     0.48870     0.49849     0.48870     0.45523     0.39084     0.30119     0.21143    
 0.13934     0.89763E-01 0.64748E-01 0.56989E-01 0.56620E-01 0.57452E-01 0.95547E-01 0.92404E-01 0.84112E-01 0.74018E-01
 0.67155E-01 0.70199E-01 0.89763E-01 0.12747     0.17630     0.22756     0.27322     0.30445     0.31543     0.30445    
 0.27322     0.22756     0.17630     0.12747     0.89763E-01 0.70199E-01 0.67155E-01 0.74018E-01 0.84112E-01 0.92404E-01
 0.18443     0.17472     0.14930     0.11681     0.86360E-01 0.67155E-01 0.64748E-01 0.79703E-01 0.10766     0.13791    
 0.16141     0.17562     0.18038     0.17562     0.16141     0.13791     0.10766     0.79703E-01 0.64748E-01 0.67155E-01
 0.86360E-01 0.11681     0.14930     0.17472     0.31197     0.29411     0.24627     0.18105     0.11681     0.74018E-01
 0.56988E-01 0.59008E-01 0.74428E-01 0.96777E-01 0.11790     0.13222     0.13726     0.13222     0.11790     0.96777E-01
 0.74428E-01 0.59008E-01 0.56988E-01 0.74018E-01 0.11681     0.18105     0.24627     0.29411     0.42032     0.39812    
 0.33700     0.24627     0.14930     0.84113E-01 0.56620E-01 0.52176E-01 0.62435E-01 0.83560E-01 0.10897     0.12942    
 0.13724     0.12942     0.10897     0.83560E-01 0.62435E-01 0.52176E-01 0.56620E-01 0.84113E-01 0.14930     0.24627    
 0.33700     0.39812     0.48762     0.46409     0.39812     0.29411     0.17472     0.92404E-01 0.57451E-01 0.49738E-01
 0.59016E-01 0.83446E-01 0.11755     0.14748     0.15931     0.14748     0.11755     0.83446E-01 0.59016E-01 0.49738E-01
 0.57451E-01 0.92404E-01 0.17472     0.29411     0.39812     0.46409     0.51144     0.48762     0.42032     0.31197    
 0.18444     0.95548E-01 0.57740E-01 0.48934E-01 0.58169E-01 0.84520E-01 0.12323     0.15827     0.17229     0.15827    
 0.12323     0.84520E-01 0.58169E-01 0.48934E-01 0.57740E-01 0.95548E-01 0.18444     0.31197     0.42032     0.48762    
 0.48762     0.46409     0.39812     0.29411     0.17472     0.92404E-01 0.57451E-01 0.49738E-01 0.59016E-01 0.83446E-01
 0.11755     0.14748     0.15931     0.14748     0.11755     0.83446E-01 0.59016E-01 0.49738E-01 0.57451E-01 0.92404E-01
 0.17472     0.29411     0.39812     0.46409     0.42032     0.39812     0.33700     0.24627     0.14930     0.84113E-01
 0.56620E-01 0.52176E-01 0.62435E-01 0.83560E-01 0.10897     0.12942     0.13724     0.12942     0.10897     0.83560E-01
 0.62435E-01 0.52176E-01 0.56620E-01 0.84113E-01 0.14930     0.24627     0.33700     0.39812     0.31197     0.29411    
 0.24627     0.18105     0.11681     0.74018E-01 0.56988E-01 0.59008E-01 0.74428E-01 0.96777E-01 0.11790     0.13222    
 0.13726     0.13222     0.11790     0.96777E-01 0.74428E-01 0.59008E-01 0.56988E-01 0.74018E-01 0.11681     0.18105    
 0.24627     0.29411     0.18443     0.17472     0.14930     0.11681     0.86360E-01 0.67155E-01 0.64748E-01 0.79703E-01
 0.10766     0.13791     0.16141     0.17562     0.18038     0.17562     0.16141     0.13791     0.10766     0.79703E-01
 0.64748E-01 0.67155E-01 0.86360E-01 0.11681     0.14930     0.17472     0.95547E-01 0.92404E-01 0.84112E-01 0.74018E-01
 0.67155E-01 0.70199E-01 0.89763E-01 0.12747     0.17630     0.22756     0.27322     0.30445     0.31543     0.30445    
 0.27322     0.22756     0.17630     0.12747     0.89763E-01 0.70199E-01 0.67155E-01 0.74018E-01 0.84112E-01 0.92404E-01
 0.57741E-01 0.57452E-01 0.56620E-01 0.56989E-01 0.64748E-01 0.89763E-01 0.13934     0.21143     0.30119     0.39084    
 0.45523     0.48870     0.49849     0.48870     0.45523     0.39084     0.30119     0.21143     0.13934     0.89763E-01
 0.64748E-01 0.56989E-01 0.56620E-01 0.57452E-01 0.48935E-01 0.49739E-01 0.52177E-01 0.59009E-01 0.79704E-01 0.12747    
 0.21143     0.33397     0.45536     0.52222     0.53960     0.53611     0.53256     0.53611     0.53960     0.52222    
 0.45536     0.33397     0.21143     0.12747     0.79704E-01 0.59009E-01 0.52177E-01 0.49739E-01 0.58171E-01 0.59018E-01
 0.62437E-01 0.74429E-01 0.10766     0.17630     0.30120     0.45536     0.53506     0.52950     0.48428     0.44063    
 0.42365     0.44063     0.48428     0.52950     0.53506     0.45536     0.30120     0.17630     0.10766     0.74429E-01
 0.62437E-01 0.59018E-01 0.84523E-01 0.83449E-01 0.83563E-01 0.96780E-01 0.13791     0.22756     0.39084     0.52222    
 0.52950     0.45352     0.35774     0.29475     0.27588     0.29475     0.35774     0.45352     0.52950     0.52222    
 0.39084     0.22756     0.13791     0.96780E-01 0.83563E-01 0.83449E-01 0.12323     0.11755     0.10898     0.11790    
 0.16142     0.27322     0.45523     0.53960     0.48428     0.35774     0.25538     0.23292     0.24687     0.23292    
 0.25538     0.35774     0.48428     0.53960     0.45523     0.27322     0.16142     0.11790     0.10898     0.11755    
 0.15828     0.14749     0.12943     0.13223     0.17563     0.30445     0.48870     0.53611     0.44063     0.29476    
 0.23292     0.38016     0.60973     0.38016     0.23292     0.29476     0.44063     0.53611     0.48870     0.30445    
 0.17563     0.13223     0.12943     0.14749     0.78225E-01 0.78287E-01 0.86003E-01 0.12031     0.19866     0.35189    
 0.52676     0.56136     0.46354     0.31789     0.26295     0.44908     0.70916     0.44908     0.26295     0.31789    
 0.46354     0.56136     0.52676     0.35189     0.19866     0.12031     0.86003E-01 0.78287E-01 0.73149E-01 0.73777E-01
 0.82006E-01 0.11553     0.19183     0.33932     0.51699     0.56420     0.47917     0.33765     0.25920     0.33145    
 0.44908     0.33145     0.25920     0.33765     0.47917     0.56420     0.51699     0.33932     0.19183     0.11553    
 0.82006E-01 0.73777E-01 0.61414E-01 0.63003E-01 0.71764E-01 0.10221     0.17197     0.30294     0.48292     0.56557    
 0.51856     0.40025     0.29476     0.25920     0.26295     0.25920     0.29476     0.40025     0.51856     0.56557    
 0.48292     0.30294     0.17197     0.10221     0.71764E-01 0.63003E-01 0.51122E-01 0.52947E-01 0.60577E-01 0.84448E-01
 0.14179     0.24847     0.41520     0.54447     0.55712     0.49010     0.40025     0.33765     0.31789     0.33765    
 0.40025     0.49010     0.55712     0.54447     0.41520     0.24847     0.14179     0.84448E-01 0.60577E-01 0.52947E-01
 0.49937E-01 0.51173E-01 0.55846E-01 0.70417E-01 0.10939     0.18743     0.31769     0.47203     0.55577     0.55712    
 0.51855     0.47917     0.46354     0.47917     0.51855     0.55712     0.55577     0.47203     0.31769     0.18743    
 0.10939     0.70417E-01 0.55846E-01 0.51173E-01 0.66158E-01 0.65994E-01 0.65784E-01 0.69436E-01 0.87742E-01 0.13437    
 0.21921     0.34493     0.47203     0.54447     0.56557     0.56419     0.56136     0.56419     0.56557     0.54447    
 0.47203     0.34493     0.21921     0.13437     0.87742E-01 0.69436E-01 0.65784E-01 0.65994E-01 0.11999     0.11615    
 0.10519     0.91701E-01 0.86707E-01 0.10184     0.14517     0.21921     0.31769     0.41520     0.48292     0.51699    
 0.52676     0.51699     0.48292     0.41520     0.31769     0.21921     0.14517     0.10184     0.86707E-01 0.91701E-01
 0.10519     0.11615     0.24505     0.23324     0.19939     0.15307     0.11332     0.94866E-01 0.10184     0.13437    
 0.18743     0.24847     0.30294     0.33932     0.35189     0.33932     0.30294     0.24847     0.18743     0.13437    
 0.10184     0.94866E-01 0.11332     0.15307     0.19939     0.23324     0.42177     0.40334     0.34711     0.26138    
 0.17401     0.11332     0.86707E-01 0.87742E-01 0.10939     0.14179     0.17197     0.19183     0.19866     0.19183    
 0.17197     0.14179     0.10939     0.87742E-01 0.86707E-01 0.11332     0.17401     0.26138     0.34711     0.40334    
 0.56524     0.54724     0.48913     0.38779     0.26139     0.15307     0.91701E-01 0.69435E-01 0.70416E-01 0.84447E-01
 0.10221     0.11552     0.12030     0.11552     0.10221     0.84447E-01 0.70416E-01 0.69435E-01 0.91701E-01 0.15307    
 0.26139     0.38779     0.48913     0.54724     0.65061     0.63518     0.58466     0.48913     0.34712     0.19939    
 0.10519     0.65784E-01 0.55846E-01 0.60576E-01 0.71762E-01 0.82003E-01 0.86000E-01 0.82003E-01 0.71762E-01 0.60576E-01
 0.55846E-01 0.65784E-01 0.10519     0.19939     0.34712     0.48913     0.58466     0.63518     0.69431     0.68043    
 0.63518     0.54725     0.40334     0.23325     0.11615     0.65994E-01 0.51173E-01 0.52946E-01 0.63001E-01 0.73774E-01
 0.78285E-01 0.73774E-01 0.63001E-01 0.52946E-01 0.51173E-01 0.65994E-01 0.11615     0.23325     0.40334     0.54725    
 0.63518     0.68043     0.70775     0.69431     0.65061     0.56524     0.42177     0.24505     0.11999     0.66158E-01
 0.49936E-01 0.51120E-01 0.61412E-01 0.73146E-01 0.78222E-01 0.73146E-01 0.61412E-01 0.51120E-01 0.49936E-01 0.66158E-01
 0.11999     0.24505     0.42177     0.56524     0.65061     0.69431     0.69431     0.68043     0.63518     0.54725    
 0.40334     0.23325     0.11615     0.65994E-01 0.51173E-01 0.52946E-01 0.63001E-01 0.73774E-01 0.78285E-01 0.73774E-01
 0.63001E-01 0.52946E-01 0.51173E-01 0.65994E-01 0.11615     0.23325     0.40334     0.54725     0.63518     0.68043    
 0.65061     0.63518     0.58466     0.48913     0.34712     0.19939     0.10519     0.65784E-01 0.55846E-01 0.60576E-01
 0.71762E-01 0.82003E-01 0.86000E-01 0.82003E-01 0.71762E-01 0.60576E-01 0.55846E-01 0.65784E-01 0.10519     0.19939    
 0.34712     0.48913     0.58466     0.63518     0.56524     0.54724     0.48913     0.38779     0.26139     0.15307    
 0.91701E-01 0.69435E-01 0.70416E-01 0.84447E-01 0.10221     0.11552     0.12030     0.11552     0.10221     0.84447E-01
 0.70416E-01 0.69435E-01 0.91701E-01 0.15307     0.26139     0.38779     0.48913     0.54724     0.42177     0.40334    
 0.34711     0.26138     0.17401     0.11332     0.86707E-01 0.87742E-01 0.10939     0.14179     0.17197     0.19183    
 0.19866     0.19183     0.17197     0.14179     0.10939     0.87742E-01 0.86707E-01 0.11332     0.17401     0.26138    
 0.34711     0.40334     0.24505     0.23324     0.19939     0.15307     0.11332     0.94866E-01 0.10184     0.13437    
 0.18743     0.24847     0.30294     0.33932     0.35189     0.33932     0.30294     0.24847     0.18743     0.13437    
 0.10184     0.94866E-01 0.11332     0.15307     0.19939     0.23324     0.11999     0.11615     0.10519     0.91701E-01
 0.86707E-01 0.10184     0.14517     0.21921     0.31769     0.41520     0.48292     0.51699     0.52676     0.51699    
 0.48292     0.41520     0.31769     0.21921     0.14517     0.10184     0.86707E-01 0.91701E-01 0.10519     0.11615    
 0.66158E-01 0.65994E-01 0.65784E-01 0.69436E-01 0.87742E-01 0.13437     0.21921     0.34493     0.47203     0.54447    
 0.56557     0.56419     0.56136     0.56419     0.56557     0.54447     0.47203     0.34493     0.21921     0.13437    
 0.87742E-01 0.69436E-01 0.65784E-01 0.65994E-01 0.49937E-01 0.51173E-01 0.55846E-01 0.70417E-01 0.10939     0.18743    
 0.31769     0.47203     0.55577     0.55712     0.51855     0.47917     0.46354     0.47917     0.51855     0.55712    
 0.55577     0.47203     0.31769     0.18743     0.10939     0.70417E-01 0.55846E-01 0.51173E-01 0.51122E-01 0.52947E-01
 0.60577E-01 0.84448E-01 0.14179     0.24847     0.41520     0.54447     0.55712     0.49010     0.40025     0.33765    
 0.31789     0.33765     0.40025     0.49010     0.55712     0.54447     0.41520     0.24847     0.14179     0.84448E-01
 0.60577E-01 0.52947E-01 0.61414E-01 0.63003E-01 0.71764E-01 0.10221     0.17197     0.30294     0.48292     0.56557    
 0.51856     0.40025     0.29476     0.25920     0.26295     0.25920     0.29476     0.40025     0.51856     0.56557    
 0.48292     0.30294     0.17197     0.10221     0.71764E-01 0.63003E-01 0.73149E-01 0.73777E-01 0.82006E-01 0.11553    
 0.19183     0.33932     0.51699     0.56420     0.47917     0.33765     0.25920     0.33145     0.44908     0.33145    
 0.25920     0.33765     0.47917     0.56420     0.51699     0.33932     0.19183     0.11553     0.82006E-01 0.73777E-01
 0.43655E-01 0.47261E-01 0.63383E-01 0.11197     0.21210     0.36607     0.53622     0.59351     0.52898     0.39918    
 0.29784     0.28971     0.31823     0.28971     0.29784     0.39918     0.52898     0.59351     0.53622     0.36607    
 0.21210     0.11197     0.63383E-01 0.47261E-01 0.42789E-01 0.46261E-01 0.61359E-01 0.10678     0.20274     0.35202    
 0.52436     0.59310     0.54061     0.41955     0.31305     0.28156     0.28971     0.28156     0.31305     0.41955    
 0.54061     0.59310     0.52436     0.35202     0.20274     0.10678     0.61359E-01 0.46261E-01 0.42008E-01 0.44955E-01
 0.57083E-01 0.93651E-01 0.17652     0.31114     0.48430     0.58491     0.56780     0.47668     0.37355     0.31305    
 0.29784     0.31305     0.37355     0.47668     0.56780     0.58491     0.48430     0.31114     0.17652     0.93651E-01
 0.57083E-01 0.44955E-01 0.47065E-01 0.48939E-01 0.56522E-01 0.80663E-01 0.14147     0.24994     0.40829     0.54848    
 0.58727     0.54723     0.47668     0.41955     0.39918     0.41955     0.47668     0.54723     0.58727     0.54848    
 0.40829     0.24994     0.14147     0.80663E-01 0.56522E-01 0.48939E-01 0.69229E-01 0.68985E-01 0.69599E-01 0.78998E-01
 0.11266     0.18462     0.30464     0.45850     0.56263     0.58727     0.56780     0.54061     0.52898     0.54061    
 0.56780     0.58727     0.56263     0.45850     0.30464     0.18462     0.11266     0.78998E-01 0.69599E-01 0.68985E-01
 0.13430     0.12874     0.11451     0.10127     0.10437     0.13639     0.20732     0.32446     0.45850     0.54848    
 0.58490     0.59310     0.59351     0.59310     0.58490     0.54848     0.45850     0.32446     0.20732     0.13639    
 0.10437     0.10127     0.11451     0.12874     0.28195     0.26644     0.22379     0.16896     0.12815     0.11846    
 0.14386     0.20732     0.30464     0.40829     0.48430     0.52436     0.53622     0.52436     0.48430     0.40829    
 0.30464     0.20732     0.14386     0.11846     0.12815     0.16896     0.22379     0.26644     0.48583     0.46556    
 0.40311     0.30374     0.20130     0.13723     0.11846     0.13639     0.18462     0.24994     0.31114     0.35202    
 0.36607     0.35202     0.31114     0.24994     0.18462     0.13639     0.11846     0.13723     0.20130     0.30374    
 0.40311     0.46556     0.64471     0.62930     0.57670     0.47416     0.33086     0.20130     0.12815     0.10437    
 0.11266     0.14147     0.17652     0.20274     0.21210     0.20274     0.17652     0.14147     0.11266     0.10437    
 0.12815     0.20130     0.33086     0.47416     0.57670     0.62930     0.73457     0.72443     0.68825     0.60991    
 0.47416     0.30374     0.16897     0.10127     0.78998E-01 0.80663E-01 0.93649E-01 0.10678     0.11197     0.10678    
 0.93649E-01 0.80663E-01 0.78998E-01 0.10127     0.16897     0.30374     0.47416     0.60991     0.68825     0.72443    
 0.78068     0.77329     0.74683     0.68825     0.57670     0.40312     0.22379     0.11451     0.69599E-01 0.56522E-01
 0.57082E-01 0.61358E-01 0.63381E-01 0.61358E-01 0.57082E-01 0.56522E-01 0.69599E-01 0.11451     0.22379     0.40312    
 0.57670     0.68825     0.74683     0.77329     0.80180     0.79554     0.77329     0.72443     0.62931     0.46557    
 0.26644     0.12874     0.68985E-01 0.48939E-01 0.44954E-01 0.46260E-01 0.47259E-01 0.46260E-01 0.44954E-01 0.48939E-01
 0.68985E-01 0.12874     0.26644     0.46557     0.62931     0.72443     0.77329     0.79554     0.80776     0.80180    
 0.78068     0.73457     0.64471     0.48583     0.28196     0.13430     0.69229E-01 0.47064E-01 0.42008E-01 0.42788E-01
 0.43654E-01 0.42788E-01 0.42008E-01 0.47064E-01 0.69229E-01 0.13430     0.28196     0.48583     0.64471     0.73457    
 0.78068     0.80180     0.80180     0.79554     0.77329     0.72443     0.62931     0.46557     0.26644     0.12874    
 0.68985E-01 0.48939E-01 0.44954E-01 0.46260E-01 0.47259E-01 0.46260E-01 0.44954E-01 0.48939E-01 0.68985E-01 0.12874    
 0.26644     0.46557     0.62931     0.72443     0.77329     0.79554     0.78068     0.77329     0.74683     0.68825    
 0.57670     0.40312     0.22379     0.11451     0.69599E-01 0.56522E-01 0.57082E-01 0.61358E-01 0.63381E-01 0.61358E-01
 0.57082E-01 0.56522E-01 0.69599E-01 0.11451     0.22379     0.40312     0.57670     0.68825     0.74683     0.77329    
 0.73457     0.72443     0.68825     0.60991     0.47416     0.30374     0.16897     0.10127     0.78998E-01 0.80663E-01
 0.93649E-01 0.10678     0.11197     0.10678     0.93649E-01 0.80663E-01 0.78998E-01 0.10127     0.16897     0.30374    
 0.47416     0.60991     0.68825     0.72443     0.64471     0.62930     0.57670     0.47416     0.33086     0.20130    
 0.12815     0.10437     0.11266     0.14147     0.17652     0.20274     0.21210     0.20274     0.17652     0.14147    
 0.11266     0.10437     0.12815     0.20130     0.33086     0.47416     0.57670     0.62930     0.48583     0.46556    
 0.40311     0.30374     0.20130     0.13723     0.11846     0.13639     0.18462     0.24994     0.31114     0.35202    
 0.36607     0.35202     0.31114     0.24994     0.18462     0.13639     0.11846     0.13723     0.20130     0.30374    
 0.40311     0.46556     0.28195     0.26644     0.22379     0.16896     0.12815     0.11846     0.14386     0.20732    
 0.30464     0.40829     0.48430     0.52436     0.53622     0.52436     0.48430     0.40829     0.30464     0.20732    
 0.14386     0.11846     0.12815     0.16896     0.22379     0.26644     0.13430     0.12874     0.11451     0.10127    
 0.10437     0.13639     0.20732     0.32446     0.45850     0.54848     0.58490     0.59310     0.59351     0.59310    
 0.58490     0.54848     0.45850     0.32446     0.20732     0.13639     0.10437     0.10127     0.11451     0.12874    
 0.69229E-01 0.68985E-01 0.69599E-01 0.78998E-01 0.11266     0.18462     0.30464     0.45850     0.56263     0.58727    
 0.56780     0.54061     0.52898     0.54061     0.56780     0.58727     0.56263     0.45850     0.30464     0.18462    
 0.11266     0.78998E-01 0.69599E-01 0.68985E-01 0.47065E-01 0.48939E-01 0.56522E-01 0.80663E-01 0.14147     0.24994    
 0.40829     0.54848     0.58727     0.54723     0.47668     0.41955     0.39918     0.41955     0.47668     0.54723    
 0.58727     0.54848     0.40829     0.24994     0.14147     0.80663E-01 0.56522E-01 0.48939E-01 0.42008E-01 0.44955E-01
 0.57083E-01 0.93651E-01 0.17652     0.31114     0.48430     0.58491     0.56780     0.47668     0.37355     0.31305    
 0.29784     0.31305     0.37355     0.47668     0.56780     0.58491     0.48430     0.31114     0.17652     0.93651E-01
 0.57083E-01 0.44955E-01 0.42789E-01 0.46261E-01 0.61359E-01 0.10678     0.20274     0.35202     0.52436     0.59310    
 0.54061     0.41955     0.31305     0.28156     0.28971     0.28156     0.31305     0.41955     0.54061     0.59310    
 0.52436     0.35202     0.20274     0.10678     0.61359E-01 0.46261E-01 0.31569E-01 0.35607E-01 0.52498E-01 0.10363    
 0.21279     0.35645     0.51639     0.60886     0.59375     0.50628     0.40131     0.33377     0.31444     0.33377    
 0.40131     0.50628     0.59375     0.60886     0.51639     0.35645     0.21279     0.10363     0.52498E-01 0.35607E-01
 0.33171E-01 0.36920E-01 0.52300E-01 0.98604E-01 0.20052     0.34041     0.50116     0.60332     0.59926     0.52213    
 0.42330     0.35503     0.33377     0.35503     0.42330     0.52213     0.59926     0.60332     0.50116     0.34041    
 0.20052     0.98604E-01 0.52300E-01 0.36920E-01 0.40660E-01 0.43418E-01 0.54423E-01 0.88067E-01 0.16865     0.29429    
 0.45268     0.58015     0.60856     0.56167     0.48500     0.42330     0.40131     0.42330     0.48500     0.56167    
 0.60856     0.58015     0.45268     0.29429     0.16865     0.88067E-01 0.54423E-01 0.43418E-01 0.64178E-01 0.64495E-01
 0.67431E-01 0.83867E-01 0.13381     0.22918     0.36940     0.52130     0.60023     0.60016     0.56167     0.52213    
 0.50628     0.52213     0.56167     0.60016     0.60023     0.52130     0.36940     0.22918     0.13381     0.83867E-01
 0.67431E-01 0.64495E-01 0.12980     0.12356     0.10897     0.10042     0.11625     0.16953     0.26896     0.41285    
 0.54112     0.60022     0.60856     0.59926     0.59375     0.59926     0.60856     0.60022     0.54112     0.41285    
 0.26896     0.16953     0.11625     0.10042     0.10897     0.12356     0.28072     0.26204     0.21376     0.16017    
 0.13079     0.13835     0.18711     0.28348     0.41285     0.52130     0.58014     0.60332     0.60886     0.60332    
 0.58014     0.52130     0.41285     0.28348     0.18711     0.13835     0.13079     0.16017     0.21376     0.26204    
 0.49927     0.47509     0.40352     0.29707     0.19863     0.14750     0.14545     0.18711     0.26896     0.36940    
 0.45267     0.50116     0.51639     0.50116     0.45267     0.36940     0.26896     0.18711     0.14545     0.14750    
 0.19863     0.29707     0.40352     0.47509     0.67516     0.65864     0.60348     0.49582     0.34381     0.21233    
 0.14750     0.13835     0.16953     0.22918     0.29429     0.34041     0.35645     0.34041     0.29429     0.22918    
 0.16953     0.13835     0.14750     0.21233     0.34381     0.49582     0.60348     0.65864     0.77296     0.76396    
 0.73221     0.66109     0.52646     0.34381     0.19864     0.13079     0.11625     0.13381     0.16865     0.20052    
 0.21279     0.20052     0.16865     0.13381     0.11625     0.13079     0.19864     0.34381     0.52646     0.66109    
 0.73221     0.76396     0.82107     0.81589     0.79719     0.75350     0.66109     0.49582     0.29707     0.16017    
 0.10042     0.83867E-01 0.88066E-01 0.98603E-01 0.10363     0.98603E-01 0.88066E-01 0.83867E-01 0.10042     0.16017    
 0.29707     0.49582     0.66109     0.75350     0.79719     0.81589     0.84304     0.83969     0.82718     0.79719    
 0.73221     0.60349     0.40353     0.21376     0.10897     0.67431E-01 0.54423E-01 0.52299E-01 0.52497E-01 0.52299E-01
 0.54423E-01 0.67431E-01 0.10897     0.21376     0.40353     0.60349     0.73221     0.79719     0.82718     0.83969    
 0.85171     0.84928     0.83969     0.81589     0.76397     0.65864     0.47509     0.26204     0.12356     0.64495E-01
 0.43417E-01 0.36920E-01 0.35606E-01 0.36920E-01 0.43417E-01 0.64495E-01 0.12356     0.26204     0.47509     0.65864    
 0.76397     0.81589     0.83969     0.84928     0.85385     0.85171     0.84304     0.82107     0.77297     0.67516    
 0.49928     0.28072     0.12980     0.64178E-01 0.40660E-01 0.33171E-01 0.31568E-01 0.33171E-01 0.40660E-01 0.64178E-01
 0.12980     0.28072     0.49928     0.67516     0.77297     0.82107     0.84304     0.85171     0.85171     0.84928    
 0.83969     0.81589     0.76397     0.65864     0.47509     0.26204     0.12356     0.64495E-01 0.43417E-01 0.36920E-01
 0.35606E-01 0.36920E-01 0.43417E-01 0.64495E-01 0.12356     0.26204     0.47509     0.65864     0.76397     0.81589    
 0.83969     0.84928     0.84304     0.83969     0.82718     0.79719     0.73221     0.60349     0.40353     0.21376    
 0.10897     0.67431E-01 0.54423E-01 0.52299E-01 0.52497E-01 0.52299E-01 0.54423E-01 0.67431E-01 0.10897     0.21376    
 0.40353     0.60349     0.73221     0.79719     0.82718     0.83969     0.82107     0.81589     0.79719     0.75350    
 0.66109     0.49582     0.29707     0.16017     0.10042     0.83867E-01 0.88066E-01 0.98603E-01 0.10363     0.98603E-01
 0.88066E-01 0.83867E-01 0.10042     0.16017     0.29707     0.49582     0.66109     0.75350     0.79719     0.81589    
 0.77296     0.76396     0.73221     0.66109     0.52646     0.34381     0.19864     0.13079     0.11625     0.13381    
 0.16865     0.20052     0.21279     0.20052     0.16865     0.13381     0.11625     0.13079     0.19864     0.34381    
 0.52646     0.66109     0.73221     0.76396     0.67516     0.65864     0.60348     0.49582     0.34381     0.21233    
 0.14750     0.13835     0.16953     0.22918     0.29429     0.34041     0.35645     0.34041     0.29429     0.22918    
 0.16953     0.13835     0.14750     0.21233     0.34381     0.49582     0.60348     0.65864     0.49927     0.47509    
 0.40352     0.29707     0.19863     0.14750     0.14545     0.18711     0.26896     0.36940     0.45267     0.50116    
 0.51639     0.50116     0.45267     0.36940     0.26896     0.18711     0.14545     0.14750     0.19863     0.29707    
 0.40352     0.47509     0.28072     0.26204     0.21376     0.16017     0.13079     0.13835     0.18711     0.28348    
 0.41285     0.52130     0.58014     0.60332     0.60886     0.60332     0.58014     0.52130     0.41285     0.28348    
 0.18711     0.13835     0.13079     0.16017     0.21376     0.26204     0.12980     0.12356     0.10897     0.10042    
 0.11625     0.16953     0.26896     0.41285     0.54112     0.60022     0.60856     0.59926     0.59375     0.59926    
 0.60856     0.60022     0.54112     0.41285     0.26896     0.16953     0.11625     0.10042     0.10897     0.12356    
 0.64178E-01 0.64495E-01 0.67431E-01 0.83867E-01 0.13381     0.22918     0.36940     0.52130     0.60023     0.60016    
 0.56167     0.52213     0.50628     0.52213     0.56167     0.60016     0.60023     0.52130     0.36940     0.22918    
 0.13381     0.83867E-01 0.67431E-01 0.64495E-01 0.40660E-01 0.43418E-01 0.54423E-01 0.88067E-01 0.16865     0.29429    
 0.45268     0.58015     0.60856     0.56167     0.48500     0.42330     0.40131     0.42330     0.48500     0.56167    
 0.60856     0.58015     0.45268     0.29429     0.16865     0.88067E-01 0.54423E-01 0.43418E-01 0.33171E-01 0.36920E-01
 0.52300E-01 0.98604E-01 0.20052     0.34041     0.50116     0.60332     0.59926     0.52213     0.42330     0.35503    
 0.33377     0.35503     0.42330     0.52213     0.59926     0.60332     0.50116     0.34041     0.20052     0.98604E-01
 0.52300E-01 0.36920E-01 0.29077E-01 0.32686E-01 0.46922E-01 0.89244E-01 0.18901     0.32446     0.46612     0.58715    
 0.62816     0.59801     0.53405     0.47633     0.45404     0.47633     0.53405     0.59801     0.62816     0.58715    
 0.46612     0.32446     0.18901     0.89244E-01 0.46922E-01 0.32686E-01 0.33192E-01 0.36347E-01 0.48716E-01 0.85640E-01
 0.17548     0.30632     0.44845     0.57558     0.62629     0.60526     0.54933     0.49691     0.47633     0.49691    
 0.54933     0.60526     0.62629     0.57558     0.44845     0.30632     0.17548     0.85640E-01 0.48716E-01 0.36347E-01
 0.51025E-01 0.52300E-01 0.58456E-01 0.81371E-01 0.14485     0.25644     0.39509     0.53582     0.61415     0.61953    
 0.58622     0.54933     0.53405     0.54933     0.58622     0.61953     0.61415     0.53582     0.39509     0.25644    
 0.14485     0.81371E-01 0.58456E-01 0.52300E-01 0.10372     0.99165E-01 0.90150E-01 0.90958E-01 0.12084     0.19499    
 0.31237     0.45747     0.57271     0.61935     0.61953     0.60526     0.59801     0.60526     0.61953     0.61935    
 0.57271     0.45747     0.31237     0.19499     0.12084     0.90958E-01 0.90150E-01 0.99165E-01 0.23512     0.21743    
 0.17498     0.13507     0.12378     0.15232     0.22618     0.34533     0.47944     0.57271     0.61415     0.62628    
 0.62816     0.62628     0.61415     0.57271     0.47944     0.34533     0.22618     0.15232     0.12378     0.13507    
 0.17498     0.21743     0.45732     0.42995     0.35300     0.25165     0.17445     0.14774     0.16914     0.23735    
 0.34533     0.45747     0.53581     0.57558     0.58714     0.57558     0.53581     0.45747     0.34533     0.23735    
 0.16914     0.14774     0.17445     0.25165     0.35300     0.42995     0.66212     0.64245     0.57772     0.45787    
 0.30777     0.19814     0.15653     0.16914     0.22618     0.31237     0.39509     0.44845     0.46612     0.44845    
 0.39509     0.31237     0.22618     0.16914     0.15653     0.19814     0.30777     0.45787     0.57772     0.64245    
 0.78002     0.77025     0.73560     0.65768     0.51250     0.32852     0.19814     0.14774     0.15232     0.19499    
 0.25644     0.30632     0.32445     0.30632     0.25644     0.19499     0.15232     0.14774     0.19814     0.32852    
 0.51250     0.65768     0.73560     0.77025     0.83646     0.83181     0.81466     0.77335     0.68231     0.51250    
 0.30777     0.17445     0.12378     0.12084     0.14485     0.17548     0.18901     0.17548     0.14485     0.12084    
 0.12378     0.17445     0.30777     0.51250     0.68231     0.77335     0.81466     0.83181     0.85998     0.85794    
 0.84944     0.82676     0.77335     0.65768     0.45787     0.25165     0.13507     0.90958E-01 0.81371E-01 0.85639E-01
 0.89243E-01 0.85639E-01 0.81371E-01 0.90958E-01 0.13507     0.25165     0.45787     0.65768     0.77335     0.82676    
 0.84944     0.85794     0.86600     0.86576     0.86252     0.84944     0.81466     0.73560     0.57772     0.35300    
 0.17498     0.90150E-01 0.58456E-01 0.48715E-01 0.46922E-01 0.48715E-01 0.58456E-01 0.90150E-01 0.17498     0.35300    
 0.57772     0.73560     0.81466     0.84944     0.86252     0.86576     0.86427     0.86542     0.86576     0.85794    
 0.83181     0.77025     0.64245     0.42996     0.21744     0.99166E-01 0.52300E-01 0.36347E-01 0.32686E-01 0.36347E-01
 0.52300E-01 0.99166E-01 0.21744     0.42996     0.64245     0.77025     0.83181     0.85794     0.86576     0.86542    
 0.86254     0.86427     0.86600     0.85998     0.83646     0.78003     0.66212     0.45732     0.23513     0.10372    
 0.51025E-01 0.33192E-01 0.29077E-01 0.33192E-01 0.51025E-01 0.10372     0.23513     0.45732     0.66212     0.78003    
 0.83646     0.85998     0.86600     0.86427     0.86427     0.86542     0.86576     0.85794     0.83181     0.77025    
 0.64245     0.42996     0.21744     0.99166E-01 0.52300E-01 0.36347E-01 0.32686E-01 0.36347E-01 0.52300E-01 0.99166E-01
 0.21744     0.42996     0.64245     0.77025     0.83181     0.85794     0.86576     0.86542     0.86600     0.86576    
 0.86252     0.84944     0.81466     0.73560     0.57772     0.35300     0.17498     0.90150E-01 0.58456E-01 0.48715E-01
 0.46922E-01 0.48715E-01 0.58456E-01 0.90150E-01 0.17498     0.35300     0.57772     0.73560     0.81466     0.84944    
 0.86252     0.86576     0.85998     0.85794     0.84944     0.82676     0.77335     0.65768     0.45787     0.25165    
 0.13507     0.90958E-01 0.81371E-01 0.85639E-01 0.89243E-01 0.85639E-01 0.81371E-01 0.90958E-01 0.13507     0.25165    
 0.45787     0.65768     0.77335     0.82676     0.84944     0.85794     0.83646     0.83181     0.81466     0.77335    
 0.68231     0.51250     0.30777     0.17445     0.12378     0.12084     0.14485     0.17548     0.18901     0.17548    
 0.14485     0.12084     0.12378     0.17445     0.30777     0.51250     0.68231     0.77335     0.81466     0.83181    
 0.78002     0.77025     0.73560     0.65768     0.51250     0.32852     0.19814     0.14774     0.15232     0.19499    
 0.25644     0.30632     0.32445     0.30632     0.25644     0.19499     0.15232     0.14774     0.19814     0.32852    
 0.51250     0.65768     0.73560     0.77025     0.66212     0.64245     0.57772     0.45787     0.30777     0.19814    
 0.15653     0.16914     0.22618     0.31237     0.39509     0.44845     0.46612     0.44845     0.39509     0.31237    
 0.22618     0.16914     0.15653     0.19814     0.30777     0.45787     0.57772     0.64245     0.45732     0.42995    
 0.35300     0.25165     0.17445     0.14774     0.16914     0.23735     0.34533     0.45747     0.53581     0.57558    
 0.58714     0.57558     0.53581     0.45747     0.34533     0.23735     0.16914     0.14774     0.17445     0.25165    
 0.35300     0.42995     0.23512     0.21743     0.17498     0.13507     0.12378     0.15232     0.22618     0.34533    
 0.47944     0.57271     0.61415     0.62628     0.62816     0.62628     0.61415     0.57271     0.47944     0.34533    
 0.22618     0.15232     0.12378     0.13507     0.17498     0.21743     0.10372     0.99165E-01 0.90150E-01 0.90958E-01
 0.12084     0.19499     0.31237     0.45747     0.57271     0.61935     0.61953     0.60526     0.59801     0.60526    
 0.61953     0.61935     0.57271     0.45747     0.31237     0.19499     0.12084     0.90958E-01 0.90150E-01 0.99165E-01
 0.51025E-01 0.52300E-01 0.58456E-01 0.81371E-01 0.14485     0.25644     0.39509     0.53582     0.61415     0.61953    
 0.58622     0.54933     0.53405     0.54933     0.58622     0.61953     0.61415     0.53582     0.39509     0.25644    
 0.14485     0.81371E-01 0.58456E-01 0.52300E-01 0.33192E-01 0.36347E-01 0.48716E-01 0.85640E-01 0.17548     0.30632    
 0.44845     0.57558     0.62629     0.60526     0.54933     0.49691     0.47633     0.49691     0.54933     0.60526    
 0.62629     0.57558     0.44845     0.30632     0.17548     0.85640E-01 0.48716E-01 0.36347E-01 0.28237E-01 0.30903E-01
 0.41029E-01 0.70008E-01 0.14626     0.27523     0.40381     0.52238     0.60686     0.63366     0.62106     0.59805    
 0.58746     0.59805     0.62106     0.63366     0.60686     0.52238     0.40381     0.27523     0.14626     0.70008E-01
 0.41029E-01 0.30903E-01 0.35089E-01 0.37151E-01 0.45253E-01 0.69481E-01 0.13547     0.25559     0.38516     0.50679    
 0.59742     0.63160     0.62539     0.60695     0.59805     0.60695     0.62539     0.63160     0.59742     0.50679    
 0.38516     0.25559     0.13547     0.69481E-01 0.45253E-01 0.37151E-01 0.66220E-01 0.65076E-01 0.64685E-01 0.75089E-01
 0.11590     0.20691     0.33038     0.45790     0.56428     0.61940     0.63133     0.62539     0.62106     0.62539    
 0.63133     0.61940     0.56428     0.45790     0.33038     0.20691     0.11590     0.75089E-01 0.64685E-01 0.65076E-01
 0.15973     0.14803     0.12267     0.10400     0.11120     0.15940     0.25315     0.37521     0.49636     0.58029    
 0.61940     0.63160     0.63366     0.63160     0.61940     0.58029     0.49636     0.37521     0.25315     0.15940    
 0.11120     0.10400     0.12267     0.14803     0.36039     0.33342     0.26492     0.18858     0.14239     0.14131    
 0.18656     0.27600     0.39153     0.49636     0.56428     0.59742     0.60686     0.59742     0.56428     0.49636    
 0.39153     0.27600     0.18656     0.14131     0.14239     0.18858     0.26492     0.33342     0.59982     0.57489    
 0.49755     0.37206     0.24383     0.17028     0.15783     0.19564     0.27600     0.37521     0.45790     0.50679    
 0.52238     0.50679     0.45790     0.37521     0.27600     0.19564     0.15783     0.17028     0.24383     0.37206    
 0.49755     0.57489     0.75642     0.74371     0.69911     0.60266     0.44207     0.27531     0.18050     0.15783    
 0.18656     0.25315     0.33038     0.38516     0.40381     0.38516     0.33038     0.25315     0.18656     0.15783    
 0.18050     0.27531     0.44207     0.60266     0.69911     0.74371     0.83264     0.82719     0.80688     0.75755    
 0.65033     0.46572     0.27531     0.17028     0.14131     0.15940     0.20691     0.25559     0.27523     0.25559    
 0.20691     0.15940     0.14131     0.17028     0.27531     0.46572     0.65033     0.75755     0.80688     0.82719    
 0.86441     0.86253     0.85421     0.83087     0.77430     0.65033     0.44207     0.24383     0.14239     0.11120    
 0.11590     0.13547     0.14626     0.13547     0.11590     0.11120     0.14239     0.24383     0.44207     0.65033    
 0.77430     0.83087     0.85421     0.86253     0.86996     0.87085     0.87041     0.86100     0.83087     0.75755    
 0.60266     0.37206     0.18858     0.10400     0.75089E-01 0.69480E-01 0.70008E-01 0.69480E-01 0.75089E-01 0.10400    
 0.18858     0.37206     0.60266     0.75755     0.83087     0.86100     0.87041     0.87085     0.85760     0.86197    
 0.86970     0.87041     0.85421     0.80688     0.69911     0.49755     0.26492     0.12267     0.64685E-01 0.45253E-01
 0.41029E-01 0.45253E-01 0.64685E-01 0.12267     0.26492     0.49755     0.69911     0.80688     0.85421     0.87041    
 0.86970     0.86197     0.83742     0.84578     0.86197     0.87085     0.86253     0.82719     0.74371     0.57490    
 0.33343     0.14803     0.65076E-01 0.37151E-01 0.30903E-01 0.37151E-01 0.65076E-01 0.14803     0.33343     0.57490    
 0.74371     0.82719     0.86253     0.87085     0.86197     0.84578     0.82707     0.83742     0.85760     0.86996    
 0.86441     0.83264     0.75642     0.59983     0.36040     0.15974     0.66221E-01 0.35089E-01 0.28237E-01 0.35089E-01
 0.66221E-01 0.15974     0.36040     0.59983     0.75642     0.83264     0.86441     0.86996     0.85760     0.83742    
 0.83742     0.84578     0.86197     0.87085     0.86253     0.82719     0.74371     0.57490     0.33343     0.14803    
 0.65076E-01 0.37151E-01 0.30903E-01 0.37151E-01 0.65076E-01 0.14803     0.33343     0.57490     0.74371     0.82719    
 0.86253     0.87085     0.86197     0.84578     0.85760     0.86197     0.86970     0.87041     0.85421     0.80688    
 0.69911     0.49755     0.26492     0.12267     0.64685E-01 0.45253E-01 0.41029E-01 0.45253E-01 0.64685E-01 0.12267    
 0.26492     0.49755     0.69911     0.80688     0.85421     0.87041     0.86970     0.86197     0.86996     0.87085    
 0.87041     0.86100     0.83087     0.75755     0.60266     0.37206     0.18858     0.10400     0.75089E-01 0.69480E-01
 0.70008E-01 0.69480E-01 0.75089E-01 0.10400     0.18858     0.37206     0.60266     0.75755     0.83087     0.86100    
 0.87041     0.87085     0.86441     0.86253     0.85421     0.83087     0.77430     0.65033     0.44207     0.24383    
 0.14239     0.11120     0.11590     0.13547     0.14626     0.13547     0.11590     0.11120     0.14239     0.24383    
 0.44207     0.65033     0.77430     0.83087     0.85421     0.86253     0.83264     0.82719     0.80688     0.75755    
 0.65033     0.46572     0.27531     0.17028     0.14131     0.15940     0.20691     0.25559     0.27523     0.25559    
 0.20691     0.15940     0.14131     0.17028     0.27531     0.46572     0.65033     0.75755     0.80688     0.82719    
 0.75642     0.74371     0.69911     0.60266     0.44207     0.27531     0.18050     0.15783     0.18656     0.25315    
 0.33038     0.38516     0.40381     0.38516     0.33038     0.25315     0.18656     0.15783     0.18050     0.27531    
 0.44207     0.60266     0.69911     0.74371     0.59982     0.57489     0.49755     0.37206     0.24383     0.17028    
 0.15783     0.19564     0.27600     0.37521     0.45790     0.50679     0.52238     0.50679     0.45790     0.37521    
 0.27600     0.19564     0.15783     0.17028     0.24383     0.37206     0.49755     0.57489     0.36039     0.33342    
 0.26492     0.18858     0.14239     0.14131     0.18656     0.27600     0.39153     0.49636     0.56428     0.59742    
 0.60686     0.59742     0.56428     0.49636     0.39153     0.27600     0.18656     0.14131     0.14239     0.18858    
 0.26492     0.33342     0.15973     0.14803     0.12267     0.10400     0.11120     0.15940     0.25315     0.37521    
 0.49636     0.58029     0.61940     0.63160     0.63366     0.63160     0.61940     0.58029     0.49636     0.37521    
 0.25315     0.15940     0.11120     0.10400     0.12267     0.14803     0.66220E-01 0.65076E-01 0.64685E-01 0.75089E-01
 0.11590     0.20691     0.33038     0.45790     0.56428     0.61940     0.63133     0.62539     0.62106     0.62539    
 0.63133     0.61940     0.56428     0.45790     0.33038     0.20691     0.11590     0.75089E-01 0.64685E-01 0.65076E-01
 0.35089E-01 0.37151E-01 0.45253E-01 0.69481E-01 0.13547     0.25559     0.38516     0.50679     0.59742     0.63160    
 0.62539     0.60695     0.59805     0.60695     0.62539     0.63160     0.59742     0.50679     0.38516     0.25559    
 0.13547     0.69481E-01 0.45253E-01 0.37151E-01 0.27964E-01 0.29605E-01 0.36092E-01 0.54110E-01 0.10308     0.20859    
 0.33915     0.44355     0.52974     0.59191     0.62199     0.63052     0.63147     0.63052     0.62199     0.59191    
 0.52974     0.44355     0.33915     0.20859     0.10308     0.54110E-01 0.36092E-01 0.29605E-01 0.37929E-01 0.38784E-01
 0.43069E-01 0.57034E-01 0.97623E-01 0.19066     0.31822     0.42725     0.51663     0.58244     0.61670     0.62841    
 0.63052     0.62841     0.61670     0.58244     0.51663     0.42725     0.31822     0.19066     0.97623E-01 0.57034E-01
 0.43069E-01 0.38784E-01 0.85731E-01 0.81704E-01 0.74378E-01 0.73473E-01 0.92847E-01 0.15333     0.26100     0.37682    
 0.47550     0.55106     0.59642     0.61670     0.62199     0.61670     0.59642     0.55106     0.47550     0.37682    
 0.26100     0.15333     0.92847E-01 0.73473E-01 0.74378E-01 0.81704E-01 0.22787     0.20910     0.16652     0.12626    
 0.10944     0.12889     0.19416     0.29659     0.40363     0.49175     0.55106     0.58244     0.59191     0.58244    
 0.55106     0.49175     0.40363     0.29659     0.19416     0.12889     0.10944     0.12626     0.16652     0.20910    
 0.47501     0.44605     0.36593     0.26030     0.17495     0.13918     0.15299     0.21327     0.30744     0.40362    
 0.47550     0.51663     0.52974     0.51663     0.47550     0.40362     0.30744     0.21327     0.15299     0.13918    
 0.17495     0.26030     0.36593     0.44605     0.68951     0.67087     0.60881     0.49076     0.33355     0.20873    
 0.15560     0.16111     0.21327     0.29659     0.37681     0.42725     0.44354     0.42725     0.37681     0.29659    
 0.21327     0.16111     0.15560     0.20873     0.33355     0.49076     0.60881     0.67087     0.80509     0.79685    
 0.76717     0.69868     0.56348     0.37254     0.22079     0.15560     0.15299     0.19416     0.26100     0.31821    
 0.33915     0.31821     0.26100     0.19416     0.15299     0.15560     0.22079     0.37254     0.56348     0.69868    
 0.76717     0.79685     0.85717     0.85406     0.84181     0.81031     0.73705     0.58666     0.37254     0.20874    
 0.13918     0.12889     0.15333     0.19066     0.20859     0.19066     0.15333     0.12889     0.13918     0.20874    
 0.37254     0.58666     0.73705     0.81031     0.84181     0.85406     0.87235     0.87261     0.87046     0.85823    
 0.82257     0.73705     0.56348     0.33355     0.17495     0.10944     0.92847E-01 0.97623E-01 0.10307     0.97623E-01
 0.92847E-01 0.10944     0.17495     0.33355     0.56348     0.73705     0.82257     0.85823     0.87046     0.87261    
 0.85782     0.86279     0.87181     0.87373     0.85823     0.81031     0.69868     0.49076     0.26030     0.12626    
 0.73473E-01 0.57034E-01 0.54110E-01 0.57034E-01 0.73474E-01 0.12626     0.26030     0.49076     0.69868     0.81031    
 0.85823     0.87373     0.87181     0.86279     0.81109     0.82538     0.85323     0.87181     0.87046     0.84181    
 0.76717     0.60881     0.36593     0.16652     0.74378E-01 0.43069E-01 0.36092E-01 0.43069E-01 0.74378E-01 0.16652    
 0.36593     0.60881     0.76717     0.84181     0.87046     0.87181     0.85323     0.82538     0.74365     0.77174    
 0.82538     0.86279     0.87261     0.85406     0.79685     0.67087     0.44605     0.20910     0.81705E-01 0.38785E-01
 0.29605E-01 0.38785E-01 0.81705E-01 0.20910     0.44605     0.67087     0.79685     0.85406     0.87261     0.86279    
 0.82538     0.77174     0.70801     0.74365     0.81109     0.85782     0.87235     0.85717     0.80509     0.68951    
 0.47502     0.22787     0.85731E-01 0.37930E-01 0.27964E-01 0.37930E-01 0.85731E-01 0.22787     0.47502     0.68951    
 0.80509     0.85717     0.87235     0.85782     0.81109     0.74365     0.74365     0.77174     0.82538     0.86279    
 0.87261     0.85406     0.79685     0.67087     0.44605     0.20910     0.81705E-01 0.38785E-01 0.29605E-01 0.38785E-01
 0.81705E-01 0.20910     0.44605     0.67087     0.79685     0.85406     0.87261     0.86279     0.82538     0.77174    
 0.81109     0.82538     0.85323     0.87181     0.87046     0.84181     0.76717     0.60881     0.36593     0.16652    
 0.74378E-01 0.43069E-01 0.36092E-01 0.43069E-01 0.74378E-01 0.16652     0.36593     0.60881     0.76717     0.84181    
 0.87046     0.87181     0.85323     0.82538     0.85782     0.86279     0.87181     0.87373     0.85823     0.81031    
 0.69868     0.49076     0.26030     0.12626     0.73474E-01 0.57034E-01 0.54110E-01 0.57034E-01 0.73474E-01 0.12626    
 0.26030     0.49076     0.69868     0.81031     0.85823     0.87373     0.87181     0.86279     0.87235     0.87261    
 0.87046     0.85823     0.82257     0.73705     0.56348     0.33355     0.17495     0.10944     0.92847E-01 0.97623E-01
 0.10307     0.97623E-01 0.92847E-01 0.10944     0.17495     0.33355     0.56348     0.73705     0.82257     0.85823    
 0.87046     0.87261     0.85717     0.85406     0.84181     0.81031     0.73705     0.58666     0.37254     0.20874    
 0.13918     0.12889     0.15333     0.19066     0.20859     0.19066     0.15333     0.12889     0.13918     0.20874    
 0.37254     0.58666     0.73705     0.81031     0.84181     0.85406     0.80509     0.79685     0.76717     0.69868    
 0.56348     0.37254     0.22079     0.15560     0.15299     0.19416     0.26100     0.31821     0.33915     0.31821    
 0.26100     0.19416     0.15299     0.15560     0.22079     0.37254     0.56348     0.69868     0.76717     0.79685    
 0.68951     0.67087     0.60881     0.49076     0.33355     0.20873     0.15560     0.16111     0.21327     0.29659    
 0.37681     0.42725     0.44354     0.42725     0.37681     0.29659     0.21327     0.16111     0.15560     0.20873    
 0.33355     0.49076     0.60881     0.67087     0.47501     0.44605     0.36593     0.26030     0.17495     0.13918    
 0.15299     0.21327     0.30744     0.40362     0.47550     0.51663     0.52974     0.51663     0.47550     0.40362    
 0.30744     0.21327     0.15299     0.13918     0.17495     0.26030     0.36593     0.44605     0.22787     0.20910    
 0.16652     0.12626     0.10944     0.12889     0.19416     0.29659     0.40363     0.49175     0.55106     0.58244    
 0.59191     0.58244     0.55106     0.49175     0.40363     0.29659     0.19416     0.12889     0.10944     0.12626    
 0.16652     0.20910     0.85731E-01 0.81704E-01 0.74378E-01 0.73473E-01 0.92847E-01 0.15333     0.26100     0.37682    
 0.47550     0.55106     0.59642     0.61670     0.62199     0.61670     0.59642     0.55106     0.47550     0.37682    
 0.26100     0.15333     0.92847E-01 0.73473E-01 0.74378E-01 0.81704E-01 0.37929E-01 0.38784E-01 0.43069E-01 0.57034E-01
 0.97623E-01 0.19066     0.31822     0.42725     0.51663     0.58244     0.61670     0.62841     0.63052     0.62841    
 0.61670     0.58244     0.51663     0.42725     0.31822     0.19066     0.97623E-01 0.57034E-01 0.43069E-01 0.38784E-01
 0.27367E-01 0.28218E-01 0.31969E-01 0.42352E-01 0.69338E-01 0.13545     0.25241     0.37009     0.44954     0.50496    
 0.54450     0.56714     0.57423     0.56714     0.54450     0.50496     0.44954     0.37009     0.25241     0.13545    
 0.69338E-01 0.42352E-01 0.31969E-01 0.28218E-01 0.40273E-01 0.40165E-01 0.41473E-01 0.48204E-01 0.69208E-01 0.12459    
 0.23110     0.35058     0.43629     0.49481     0.53583     0.55959     0.56714     0.55959     0.53583     0.49481    
 0.43629     0.35058     0.23110     0.12459     0.69208E-01 0.48204E-01 0.41473E-01 0.40165E-01 0.10528     0.98842E-01
 0.85304E-01 0.74928E-01 0.77557E-01 0.10707     0.18179     0.29342     0.39375     0.46320     0.50919     0.53583    
 0.54450     0.53583     0.50919     0.46320     0.39375     0.29342     0.18179     0.10707     0.77557E-01 0.74928E-01
 0.85304E-01 0.98842E-01 0.29089     0.26842     0.21345     0.15385     0.11450     0.10739     0.13941     0.21663    
 0.31897     0.40603     0.46320     0.49481     0.50496     0.49481     0.46320     0.40603     0.31897     0.21663    
 0.13941     0.10739     0.11450     0.15385     0.21345     0.26842     0.55256     0.52731     0.45094     0.33393    
 0.21749     0.14662     0.12871     0.15691     0.22763     0.31897     0.39375     0.43629     0.44954     0.43629    
 0.39375     0.31897     0.22763     0.15691     0.12871     0.14662     0.21749     0.33393     0.45094     0.52731    
 0.73630     0.72289     0.67611     0.57849     0.42276     0.26116     0.16476     0.13645     0.15691     0.21663    
 0.29342     0.35058     0.37009     0.35058     0.29342     0.21663     0.15691     0.13645     0.16476     0.26116    
 0.42276     0.57849     0.67611     0.72289     0.82830     0.82255     0.80150     0.75197     0.64765     0.46862    
 0.27683     0.16476     0.12871     0.13941     0.18179     0.23110     0.25241     0.23110     0.18179     0.13941    
 0.12871     0.16476     0.27683     0.46862     0.64765     0.75197     0.80150     0.82255     0.86697     0.86521    
 0.85747     0.83588     0.78385     0.66937     0.46862     0.26116     0.14662     0.10739     0.10707     0.12459    
 0.13545     0.12459     0.10707     0.10739     0.14662     0.26116     0.46862     0.66937     0.78385     0.83588    
 0.85747     0.86521     0.86910     0.87132     0.87418     0.86928     0.84562     0.78385     0.64765     0.42276    
 0.21749     0.11450     0.77557E-01 0.69208E-01 0.69338E-01 0.69208E-01 0.77557E-01 0.11450     0.21749     0.42276    
 0.64765     0.78385     0.84562     0.86928     0.87418     0.87132     0.82873     0.83970     0.86110     0.87446    
 0.86928     0.83588     0.75197     0.57849     0.33393     0.15385     0.74928E-01 0.48205E-01 0.42352E-01 0.48205E-01
 0.74928E-01 0.15385     0.33393     0.57849     0.75197     0.83588     0.86928     0.87446     0.86110     0.83970    
 0.72012     0.75364     0.81711     0.86110     0.87418     0.85747     0.80150     0.67611     0.45094     0.21345    
 0.85304E-01 0.41473E-01 0.31969E-01 0.41473E-01 0.85304E-01 0.21345     0.45094     0.67611     0.80150     0.85747    
 0.87418     0.86110     0.81711     0.75364     0.55570     0.62430     0.75364     0.83970     0.87132     0.86521    
 0.82255     0.72289     0.52731     0.26842     0.98842E-01 0.40165E-01 0.28218E-01 0.40165E-01 0.98842E-01 0.26842    
 0.52731     0.72289     0.82255     0.86521     0.87132     0.83970     0.75364     0.62430     0.47081     0.55570    
 0.72012     0.82873     0.86910     0.86697     0.82830     0.73630     0.55256     0.29089     0.10528     0.40273E-01
 0.27367E-01 0.40273E-01 0.10528     0.29089     0.55256     0.73630     0.82830     0.86697     0.86910     0.82873    
 0.72012     0.55570     0.55570     0.62430     0.75364     0.83970     0.87132     0.86521     0.82255     0.72289    
 0.52731     0.26842     0.98842E-01 0.40165E-01 0.28218E-01 0.40165E-01 0.98842E-01 0.26842     0.52731     0.72289    
 0.82255     0.86521     0.87132     0.83970     0.75364     0.62430     0.72012     0.75364     0.81711     0.86110    
 0.87418     0.85747     0.80150     0.67611     0.45094     0.21345     0.85304E-01 0.41473E-01 0.31969E-01 0.41473E-01
 0.85304E-01 0.21345     0.45094     0.67611     0.80150     0.85747     0.87418     0.86110     0.81711     0.75364    
 0.82873     0.83970     0.86110     0.87446     0.86928     0.83588     0.75197     0.57849     0.33393     0.15385    
 0.74928E-01 0.48205E-01 0.42352E-01 0.48205E-01 0.74928E-01 0.15385     0.33393     0.57849     0.75197     0.83588    
 0.86928     0.87446     0.86110     0.83970     0.86910     0.87132     0.87418     0.86928     0.84562     0.78385    
 0.64765     0.42276     0.21749     0.11450     0.77557E-01 0.69208E-01 0.69338E-01 0.69208E-01 0.77557E-01 0.11450    
 0.21749     0.42276     0.64765     0.78385     0.84562     0.86928     0.87418     0.87132     0.86697     0.86521    
 0.85747     0.83588     0.78385     0.66937     0.46862     0.26116     0.14662     0.10739     0.10707     0.12459    
 0.13545     0.12459     0.10707     0.10739     0.14662     0.26116     0.46862     0.66937     0.78385     0.83588    
 0.85747     0.86521     0.82830     0.82255     0.80150     0.75197     0.64765     0.46862     0.27683     0.16476    
 0.12871     0.13941     0.18179     0.23110     0.25241     0.23110     0.18179     0.13941     0.12871     0.16476    
 0.27683     0.46862     0.64765     0.75197     0.80150     0.82255     0.73630     0.72289     0.67611     0.57849    
 0.42276     0.26116     0.16476     0.13645     0.15691     0.21663     0.29342     0.35058     0.37009     0.35058    
 0.29342     0.21663     0.15691     0.13645     0.16476     0.26116     0.42276     0.57849     0.67611     0.72289    
 0.55256     0.52731     0.45094     0.33393     0.21749     0.14662     0.12871     0.15691     0.22763     0.31897    
 0.39375     0.43629     0.44954     0.43629     0.39375     0.31897     0.22763     0.15691     0.12871     0.14662    
 0.21749     0.33393     0.45094     0.52731     0.29089     0.26842     0.21345     0.15385     0.11450     0.10739    
 0.13941     0.21663     0.31897     0.40603     0.46320     0.49481     0.50496     0.49481     0.46320     0.40603    
 0.31897     0.21663     0.13941     0.10739     0.11450     0.15385     0.21345     0.26842     0.10528     0.98842E-01
 0.85304E-01 0.74928E-01 0.77557E-01 0.10707     0.18179     0.29342     0.39375     0.46320     0.50919     0.53583    
 0.54450     0.53583     0.50919     0.46320     0.39375     0.29342     0.18179     0.10707     0.77557E-01 0.74928E-01
 0.85304E-01 0.98842E-01 0.40273E-01 0.40165E-01 0.41473E-01 0.48204E-01 0.69208E-01 0.12459     0.23110     0.35058    
 0.43629     0.49481     0.53583     0.55959     0.56714     0.55959     0.53583     0.49481     0.43629     0.35058    
 0.23110     0.12459     0.69208E-01 0.48204E-01 0.41473E-01 0.40165E-01 0.25916E-01 0.26233E-01 0.27950E-01 0.33242E-01
 0.46768E-01 0.80006E-01 0.15261     0.26437     0.36818     0.43242     0.46633     0.48316     0.48836     0.48316    
 0.46633     0.43242     0.36818     0.26437     0.15261     0.80006E-01 0.46768E-01 0.33242E-01 0.27950E-01 0.26233E-01
 0.40784E-01 0.40049E-01 0.39123E-01 0.40981E-01 0.50230E-01 0.76856E-01 0.13924     0.24353     0.34998     0.42052    
 0.45862     0.47740     0.48316     0.47740     0.45862     0.42052     0.34998     0.24353     0.13924     0.76856E-01
 0.50230E-01 0.40981E-01 0.39123E-01 0.40049E-01 0.11864     0.11100     0.93242E-01 0.76046E-01 0.68001E-01 0.76383E-01
 0.11324     0.19182     0.29605     0.38191     0.43315     0.45862     0.46633     0.45862     0.43315     0.38191    
 0.29605     0.19182     0.11324     0.76383E-01 0.68001E-01 0.76046E-01 0.93242E-01 0.11100     0.33221     0.31007    
 0.25112     0.17941     0.12322     0.95949E-01 0.99791E-01 0.13966     0.21838     0.31125     0.38191     0.42052    
 0.43242     0.42052     0.38191     0.31125     0.21838     0.13966     0.99791E-01 0.95949E-01 0.12322     0.17941    
 0.25112     0.31007     0.59315     0.57264     0.50638     0.39278     0.26096     0.16185     0.11573     0.11341    
 0.14912     0.21838     0.29605     0.34998     0.36818     0.34998     0.29605     0.21838     0.14912     0.11341    
 0.11573     0.16185     0.26096     0.39278     0.50638     0.57264     0.75739     0.74712     0.71054     0.63092    
 0.49111     0.31623     0.18355     0.12303     0.11341     0.13966     0.19182     0.24353     0.26437     0.24353    
 0.19182     0.13966     0.11341     0.12303     0.18355     0.31623     0.49111     0.63092     0.71054     0.74712    
 0.83775     0.83321     0.81655     0.77744     0.69449     0.53972     0.33586     0.18355     0.11573     0.99791E-01
 0.11324     0.13924     0.15261     0.13924     0.11324     0.99791E-01 0.11573     0.18355     0.33586     0.53972    
 0.69449     0.77744     0.81655     0.83321     0.86951     0.86845     0.86293     0.84609     0.80490     0.71398    
 0.53972     0.31623     0.16185     0.95950E-01 0.76384E-01 0.76856E-01 0.80006E-01 0.76856E-01 0.76384E-01 0.95950E-01
 0.16185     0.31623     0.53972     0.71398     0.80490     0.84609     0.86293     0.86845     0.86303     0.86668    
 0.87286     0.87202     0.85426     0.80490     0.69449     0.49112     0.26096     0.12322     0.68001E-01 0.50230E-01
 0.46768E-01 0.50230E-01 0.68001E-01 0.12322     0.26096     0.49112     0.69449     0.80490     0.85426     0.87202    
 0.87286     0.86668     0.80000     0.81660     0.84892     0.87101     0.87202     0.84609     0.77744     0.63092    
 0.39279     0.17941     0.76046E-01 0.40981E-01 0.33243E-01 0.40981E-01 0.76046E-01 0.17941     0.39279     0.63092    
 0.77744     0.84609     0.87202     0.87101     0.84892     0.81660     0.62820     0.68149     0.78136     0.84892    
 0.87286     0.86293     0.81655     0.71054     0.50638     0.25112     0.93242E-01 0.39123E-01 0.27950E-01 0.39123E-01
 0.93242E-01 0.25112     0.50638     0.71054     0.81655     0.86293     0.87286     0.84892     0.78136     0.68149    
 0.37916     0.47849     0.68149     0.81660     0.86668     0.86845     0.83321     0.74712     0.57264     0.31007    
 0.11100     0.40049E-01 0.26233E-01 0.40049E-01 0.11100     0.31007     0.57264     0.74712     0.83321     0.86845    
 0.86668     0.81660     0.68149     0.47849     0.26972     0.37916     0.62820     0.80000     0.86303     0.86951    
 0.83775     0.75739     0.59315     0.33221     0.11864     0.40784E-01 0.25916E-01 0.40784E-01 0.11864     0.33221    
 0.59315     0.75739     0.83775     0.86951     0.86303     0.80000     0.62820     0.37916     0.37916     0.47849    
 0.68149     0.81660     0.86668     0.86845     0.83321     0.74712     0.57264     0.31007     0.11100     0.40049E-01
 0.26233E-01 0.40049E-01 0.11100     0.31007     0.57264     0.74712     0.83321     0.86845     0.86668     0.81660    
 0.68149     0.47849     0.62820     0.68149     0.78136     0.84892     0.87286     0.86293     0.81655     0.71054    
 0.50638     0.25112     0.93242E-01 0.39123E-01 0.27950E-01 0.39123E-01 0.93242E-01 0.25112     0.50638     0.71054    
 0.81655     0.86293     0.87286     0.84892     0.78136     0.68149     0.80000     0.81660     0.84892     0.87101    
 0.87202     0.84609     0.77744     0.63092     0.39279     0.17941     0.76046E-01 0.40981E-01 0.33243E-01 0.40981E-01
 0.76046E-01 0.17941     0.39279     0.63092     0.77744     0.84609     0.87202     0.87101     0.84892     0.81660    
 0.86303     0.86668     0.87286     0.87202     0.85426     0.80490     0.69449     0.49112     0.26096     0.12322    
 0.68001E-01 0.50230E-01 0.46768E-01 0.50230E-01 0.68001E-01 0.12322     0.26096     0.49112     0.69449     0.80490    
 0.85426     0.87202     0.87286     0.86668     0.86951     0.86845     0.86293     0.84609     0.80490     0.71398    
 0.53972     0.31623     0.16185     0.95950E-01 0.76384E-01 0.76856E-01 0.80006E-01 0.76856E-01 0.76384E-01 0.95950E-01
 0.16185     0.31623     0.53972     0.71398     0.80490     0.84609     0.86293     0.86845     0.83775     0.83321    
 0.81655     0.77744     0.69449     0.53972     0.33586     0.18355     0.11573     0.99791E-01 0.11324     0.13924    
 0.15261     0.13924     0.11324     0.99791E-01 0.11573     0.18355     0.33586     0.53972     0.69449     0.77744    
 0.81655     0.83321     0.75739     0.74712     0.71054     0.63092     0.49111     0.31623     0.18355     0.12303    
 0.11341     0.13966     0.19182     0.24353     0.26437     0.24353     0.19182     0.13966     0.11341     0.12303    
 0.18355     0.31623     0.49111     0.63092     0.71054     0.74712     0.59315     0.57264     0.50638     0.39278    
 0.26096     0.16185     0.11573     0.11341     0.14912     0.21838     0.29605     0.34998     0.36818     0.34998    
 0.29605     0.21838     0.14912     0.11341     0.11573     0.16185     0.26096     0.39278     0.50638     0.57264    
 0.33221     0.31007     0.25112     0.17941     0.12322     0.95949E-01 0.99791E-01 0.13966     0.21838     0.31125    
 0.38191     0.42052     0.43242     0.42052     0.38191     0.31125     0.21838     0.13966     0.99791E-01 0.95949E-01
 0.12322     0.17941     0.25112     0.31007     0.11864     0.11100     0.93242E-01 0.76046E-01 0.68001E-01 0.76383E-01
 0.11324     0.19182     0.29605     0.38191     0.43315     0.45862     0.46633     0.45862     0.43315     0.38191    
 0.29605     0.19182     0.11324     0.76383E-01 0.68001E-01 0.76046E-01 0.93242E-01 0.11100     0.40784E-01 0.40049E-01
 0.39123E-01 0.40981E-01 0.50230E-01 0.76856E-01 0.13924     0.24353     0.34998     0.42052     0.45862     0.47740    
 0.48316     0.47740     0.45862     0.42052     0.34998     0.24353     0.13924     0.76856E-01 0.50230E-01 0.40981E-01
 0.39123E-01 0.40049E-01 0.23237E-01 0.23397E-01 0.24109E-01 0.26427E-01 0.32695E-01 0.47535E-01 0.79873E-01 0.14005    
 0.22286     0.30107     0.35418     0.38185     0.39018     0.38185     0.35418     0.30107     0.22286     0.14005    
 0.79873E-01 0.47535E-01 0.32695E-01 0.26427E-01 0.24109E-01 0.23397E-01 0.38526E-01 0.37736E-01 0.35914E-01 0.34952E-01
 0.37802E-01 0.48747E-01 0.75677E-01 0.12897     0.20695     0.28539     0.34174     0.37239     0.38185     0.37239    
 0.34174     0.28539     0.20695     0.12897     0.75677E-01 0.48747E-01 0.37802E-01 0.34952E-01 0.35914E-01 0.37736E-01
 0.12217     0.11495     0.96361E-01 0.75361E-01 0.60961E-01 0.57709E-01 0.69700E-01 0.10446     0.16638     0.24115    
 0.30374     0.34174     0.35418     0.34174     0.30374     0.24115     0.16638     0.10446     0.69700E-01 0.57709E-01
 0.60961E-01 0.75361E-01 0.96361E-01 0.11495     0.34894     0.32920     0.27286     0.19686     0.13016     0.89661E-01
 0.75510E-01 0.85310E-01 0.12090     0.17915     0.24115     0.28539     0.30107     0.28539     0.24115     0.17915    
 0.12090     0.85310E-01 0.75510E-01 0.89661E-01 0.13016     0.19686     0.27286     0.32920     0.60664     0.58918    
 0.53155     0.42687     0.29239     0.17641     0.10971     0.85525E-01 0.91020E-01 0.12090     0.16638     0.20695    
 0.22286     0.20695     0.16638     0.12090     0.91020E-01 0.85525E-01 0.10971     0.17641     0.29239     0.42687    
 0.53155     0.58918     0.76207     0.75296     0.72113     0.65253     0.52812     0.35570     0.20217     0.11694    
 0.85525E-01 0.85310E-01 0.10446     0.12897     0.14005     0.12897     0.10446     0.85310E-01 0.85525E-01 0.11694    
 0.20217     0.35570     0.52812     0.65253     0.72113     0.75296     0.83867     0.83435     0.81896     0.78414    
 0.71221     0.57611     0.37763     0.20217     0.10971     0.75510E-01 0.69700E-01 0.75677E-01 0.79873E-01 0.75677E-01
 0.69700E-01 0.75510E-01 0.10971     0.20217     0.37763     0.57611     0.71221     0.78414     0.81896     0.83435    
 0.86936     0.86829     0.86290     0.84703     0.80968     0.73008     0.57611     0.35570     0.17641     0.89661E-01
 0.57709E-01 0.48747E-01 0.47535E-01 0.48747E-01 0.57709E-01 0.89661E-01 0.17641     0.35570     0.57611     0.73008    
 0.80968     0.84703     0.86290     0.86829     0.86255     0.86614     0.87222     0.87144     0.85469     0.80968    
 0.71221     0.52812     0.29239     0.13016     0.60961E-01 0.37802E-01 0.32695E-01 0.37802E-01 0.60961E-01 0.13016    
 0.29239     0.52812     0.71221     0.80968     0.85469     0.87144     0.87222     0.86614     0.79889     0.81551    
 0.84792     0.87012     0.87144     0.84703     0.78414     0.65253     0.42687     0.19686     0.75361E-01 0.34952E-01
 0.26427E-01 0.34952E-01 0.75361E-01 0.19686     0.42687     0.65253     0.78414     0.84703     0.87144     0.87012    
 0.84792     0.81551     0.62561     0.67915     0.77973     0.84792     0.87222     0.86290     0.81896     0.72113    
 0.53155     0.27287     0.96361E-01 0.35914E-01 0.24109E-01 0.35914E-01 0.96361E-01 0.27287     0.53155     0.72113    
 0.81896     0.86290     0.87222     0.84792     0.77973     0.67915     0.37561     0.47503     0.67915     0.81551    
 0.86614     0.86829     0.83435     0.75296     0.58918     0.32920     0.11495     0.37736E-01 0.23397E-01 0.37736E-01
 0.11495     0.32920     0.58918     0.75296     0.83435     0.86829     0.86614     0.81551     0.67915     0.47503    
 0.26640     0.37561     0.62561     0.79889     0.86255     0.86936     0.83867     0.76207     0.60664     0.34894    
 0.12217     0.38526E-01 0.23237E-01 0.38526E-01 0.12217     0.34894     0.60664     0.76207     0.83867     0.86936    
 0.86255     0.79889     0.62561     0.37561     0.37561     0.47503     0.67915     0.81551     0.86614     0.86829    
 0.83435     0.75296     0.58918     0.32920     0.11495     0.37736E-01 0.23397E-01 0.37736E-01 0.11495     0.32920    
 0.58918     0.75296     0.83435     0.86829     0.86614     0.81551     0.67915     0.47503     0.62561     0.67915    
 0.77973     0.84792     0.87222     0.86290     0.81896     0.72113     0.53155     0.27287     0.96361E-01 0.35914E-01
 0.24109E-01 0.35914E-01 0.96361E-01 0.27287     0.53155     0.72113     0.81896     0.86290     0.87222     0.84792    
 0.77973     0.67915     0.79889     0.81551     0.84792     0.87012     0.87144     0.84703     0.78414     0.65253    
 0.42687     0.19686     0.75361E-01 0.34952E-01 0.26427E-01 0.34952E-01 0.75361E-01 0.19686     0.42687     0.65253    
 0.78414     0.84703     0.87144     0.87012     0.84792     0.81551     0.86255     0.86614     0.87222     0.87144    
 0.85469     0.80968     0.71221     0.52812     0.29239     0.13016     0.60961E-01 0.37802E-01 0.32695E-01 0.37802E-01
 0.60961E-01 0.13016     0.29239     0.52812     0.71221     0.80968     0.85469     0.87144     0.87222     0.86614    
 0.86936     0.86829     0.86290     0.84703     0.80968     0.73008     0.57611     0.35570     0.17641     0.89661E-01
 0.57709E-01 0.48747E-01 0.47535E-01 0.48747E-01 0.57709E-01 0.89661E-01 0.17641     0.35570     0.57611     0.73008    
 0.80968     0.84703     0.86290     0.86829     0.83867     0.83435     0.81896     0.78414     0.71221     0.57611    
 0.37763     0.20217     0.10971     0.75510E-01 0.69700E-01 0.75677E-01 0.79873E-01 0.75677E-01 0.69700E-01 0.75510E-01
 0.10971     0.20217     0.37763     0.57611     0.71221     0.78414     0.81896     0.83435     0.76207     0.75296    
 0.72113     0.65253     0.52812     0.35570     0.20217     0.11694     0.85525E-01 0.85310E-01 0.10446     0.12897    
 0.14005     0.12897     0.10446     0.85310E-01 0.85525E-01 0.11694     0.20217     0.35570     0.52812     0.65253    
 0.72113     0.75296     0.60664     0.58918     0.53155     0.42687     0.29239     0.17641     0.10971     0.85525E-01
 0.91020E-01 0.12090     0.16638     0.20695     0.22286     0.20695     0.16638     0.12090     0.91020E-01 0.85525E-01
 0.10971     0.17641     0.29239     0.42687     0.53155     0.58918     0.34894     0.32920     0.27286     0.19686    
 0.13016     0.89661E-01 0.75510E-01 0.85310E-01 0.12090     0.17915     0.24115     0.28539     0.30107     0.28539    
 0.24115     0.17915     0.12090     0.85310E-01 0.75510E-01 0.89661E-01 0.13016     0.19686     0.27286     0.32920    
 0.12217     0.11495     0.96361E-01 0.75361E-01 0.60961E-01 0.57709E-01 0.69700E-01 0.10446     0.16638     0.24115    
 0.30374     0.34174     0.35418     0.34174     0.30374     0.24115     0.16638     0.10446     0.69700E-01 0.57709E-01
 0.60961E-01 0.75361E-01 0.96361E-01 0.11495     0.38526E-01 0.37736E-01 0.35914E-01 0.34952E-01 0.37802E-01 0.48747E-01
 0.75677E-01 0.12897     0.20695     0.28539     0.34174     0.37239     0.38185     0.37239     0.34174     0.28539    
 0.20695     0.12897     0.75677E-01 0.48747E-01 0.37802E-01 0.34952E-01 0.35914E-01 0.37736E-01 0.20589E-01 0.20608E-01
 0.20690E-01 0.21255E-01 0.23493E-01 0.29259E-01 0.41077E-01 0.61853E-01 0.92453E-01 0.12801     0.15943     0.17984    
 0.18677     0.17984     0.15943     0.12801     0.92453E-01 0.61853E-01 0.41077E-01 0.29259E-01 0.23493E-01 0.21255E-01
 0.20690E-01 0.20608E-01 0.34987E-01 0.34188E-01 0.32000E-01 0.29521E-01 0.28781E-01 0.31913E-01 0.41204E-01 0.59314E-01
 0.87299E-01 0.12105     0.15195     0.17267     0.17984     0.17267     0.15195     0.12105     0.87299E-01 0.59314E-01
 0.41204E-01 0.31913E-01 0.28781E-01 0.29521E-01 0.32000E-01 0.34188E-01 0.11628     0.10986     0.92479E-01 0.70712E-01
 0.53088E-01 0.44019E-01 0.44196E-01 0.54209E-01 0.74691E-01 0.10289     0.13134     0.15195     0.15943     0.15195    
 0.13134     0.10289     0.74691E-01 0.54209E-01 0.44196E-01 0.44019E-01 0.53088E-01 0.70712E-01 0.92479E-01 0.10986    
 0.33991     0.32230     0.27113     0.19785     0.12777     0.80919E-01 0.58356E-01 0.53470E-01 0.61864E-01 0.80379E-01
 0.10289     0.12105     0.12801     0.12105     0.10289     0.80379E-01 0.61864E-01 0.53470E-01 0.58356E-01 0.80919E-01
 0.12777     0.19785     0.27113     0.32230     0.59548     0.57897     0.52564     0.42881     0.29848     0.17729    
 0.10118     0.66525E-01 0.56851E-01 0.61864E-01 0.74691E-01 0.87299E-01 0.92453E-01 0.87299E-01 0.74691E-01 0.61864E-01
 0.56851E-01 0.66525E-01 0.10118     0.17729     0.29848     0.42881     0.52564     0.57897     0.75262     0.74325    
 0.71178     0.64684     0.53063     0.36432     0.20521     0.10860     0.66525E-01 0.53470E-01 0.54209E-01 0.59314E-01
 0.61853E-01 0.59314E-01 0.54209E-01 0.53470E-01 0.66525E-01 0.10860     0.20521     0.36432     0.53063     0.64684    
 0.71178     0.74325     0.83259     0.82777     0.81130     0.77607     0.70660     0.57811     0.38683     0.20521    
 0.10118     0.58356E-01 0.44196E-01 0.41204E-01 0.41077E-01 0.41204E-01 0.44196E-01 0.58356E-01 0.10118     0.20521    
 0.38683     0.57811     0.70660     0.77607     0.81130     0.82777     0.86792     0.86615     0.85899     0.84099    
 0.80225     0.72432     0.57811     0.36432     0.17729     0.80919E-01 0.44019E-01 0.31913E-01 0.29259E-01 0.31913E-01
 0.44019E-01 0.80919E-01 0.17729     0.36432     0.57811     0.72432     0.80225     0.84099     0.85899     0.86615    
 0.86949     0.87146     0.87386     0.86918     0.84916     0.80225     0.70660     0.53063     0.29848     0.12777    
 0.53088E-01 0.28781E-01 0.23493E-01 0.28781E-01 0.53088E-01 0.12777     0.29848     0.53063     0.70660     0.80225    
 0.84916     0.86918     0.87386     0.87146     0.82898     0.83966     0.86052     0.87357     0.86918     0.84099    
 0.77607     0.64684     0.42881     0.19785     0.70712E-01 0.29521E-01 0.21255E-01 0.29521E-01 0.70712E-01 0.19785    
 0.42881     0.64684     0.77607     0.84099     0.86918     0.87357     0.86052     0.83966     0.72018     0.75340    
 0.81655     0.86052     0.87386     0.85899     0.81130     0.71178     0.52564     0.27113     0.92479E-01 0.32000E-01
 0.20690E-01 0.32000E-01 0.92479E-01 0.27113     0.52564     0.71178     0.81130     0.85899     0.87386     0.86052    
 0.81655     0.75340     0.55605     0.62429     0.75340     0.83966     0.87146     0.86615     0.82777     0.74325    
 0.57897     0.32230     0.10986     0.34188E-01 0.20608E-01 0.34188E-01 0.10986     0.32230     0.57897     0.74325    
 0.82777     0.86615     0.87146     0.83966     0.75340     0.62429     0.47154     0.55605     0.72018     0.82898    
 0.86949     0.86792     0.83259     0.75262     0.59548     0.33990     0.11627     0.34987E-01 0.20589E-01 0.34987E-01
 0.11627     0.33990     0.59548     0.75262     0.83259     0.86792     0.86949     0.82898     0.72018     0.55605    
 0.55605     0.62429     0.75340     0.83966     0.87146     0.86615     0.82777     0.74325     0.57897     0.32230    
 0.10986     0.34188E-01 0.20608E-01 0.34188E-01 0.10986     0.32230     0.57897     0.74325     0.82777     0.86615    
 0.87146     0.83966     0.75340     0.62429     0.72018     0.75340     0.81655     0.86052     0.87386     0.85899    
 0.81130     0.71178     0.52564     0.27113     0.92479E-01 0.32000E-01 0.20690E-01 0.32000E-01 0.92479E-01 0.27113    
 0.52564     0.71178     0.81130     0.85899     0.87386     0.86052     0.81655     0.75340     0.82898     0.83966    
 0.86052     0.87357     0.86918     0.84099     0.77607     0.64684     0.42881     0.19785     0.70712E-01 0.29521E-01
 0.21255E-01 0.29521E-01 0.70712E-01 0.19785     0.42881     0.64684     0.77607     0.84099     0.86918     0.87357    
 0.86052     0.83966     0.86949     0.87146     0.87386     0.86918     0.84916     0.80225     0.70660     0.53063    
 0.29848     0.12777     0.53088E-01 0.28781E-01 0.23493E-01 0.28781E-01 0.53088E-01 0.12777     0.29848     0.53063    
 0.70660     0.80225     0.84916     0.86918     0.87386     0.87146     0.86792     0.86615     0.85899     0.84099    
 0.80225     0.72432     0.57811     0.36432     0.17729     0.80919E-01 0.44019E-01 0.31913E-01 0.29259E-01 0.31913E-01
 0.44019E-01 0.80919E-01 0.17729     0.36432     0.57811     0.72432     0.80225     0.84099     0.85899     0.86615    
 0.83259     0.82777     0.81130     0.77607     0.70660     0.57811     0.38683     0.20521     0.10118     0.58356E-01
 0.44196E-01 0.41204E-01 0.41077E-01 0.41204E-01 0.44196E-01 0.58356E-01 0.10118     0.20521     0.38683     0.57811    
 0.70660     0.77607     0.81130     0.82777     0.75262     0.74325     0.71178     0.64684     0.53063     0.36432    
 0.20521     0.10860     0.66525E-01 0.53470E-01 0.54209E-01 0.59314E-01 0.61853E-01 0.59314E-01 0.54209E-01 0.53470E-01
 0.66525E-01 0.10860     0.20521     0.36432     0.53063     0.64684     0.71178     0.74325     0.59548     0.57897    
 0.52564     0.42881     0.29848     0.17729     0.10118     0.66525E-01 0.56851E-01 0.61864E-01 0.74691E-01 0.87299E-01
 0.92453E-01 0.87299E-01 0.74691E-01 0.61864E-01 0.56851E-01 0.66525E-01 0.10118     0.17729     0.29848     0.42881    
 0.52564     0.57897     0.33991     0.32230     0.27113     0.19785     0.12777     0.80919E-01 0.58356E-01 0.53470E-01
 0.61864E-01 0.80379E-01 0.10289     0.12105     0.12801     0.12105     0.10289     0.80379E-01 0.61864E-01 0.53470E-01
 0.58356E-01 0.80919E-01 0.12777     0.19785     0.27113     0.32230     0.11628     0.10986     0.92479E-01 0.70712E-01
 0.53088E-01 0.44019E-01 0.44196E-01 0.54209E-01 0.74691E-01 0.10289     0.13134     0.15195     0.15943     0.15195    
 0.13134     0.10289     0.74691E-01 0.54209E-01 0.44196E-01 0.44019E-01 0.53088E-01 0.70712E-01 0.92479E-01 0.10986    
 0.34987E-01 0.34188E-01 0.32000E-01 0.29521E-01 0.28781E-01 0.31913E-01 0.41204E-01 0.59314E-01 0.87299E-01 0.12105    
 0.15195     0.17267     0.17984     0.17267     0.15195     0.12105     0.87299E-01 0.59314E-01 0.41204E-01 0.31913E-01
 0.28781E-01 0.29521E-01 0.32000E-01 0.34188E-01 0.17481E-01 0.17409E-01 0.17202E-01 0.17010E-01 0.17397E-01 0.19295E-01
 0.23532E-01 0.30383E-01 0.39322E-01 0.48933E-01 0.57264E-01 0.62735E-01 0.64614E-01 0.62735E-01 0.57264E-01 0.48933E-01
 0.39322E-01 0.30383E-01 0.23532E-01 0.19295E-01 0.17397E-01 0.17010E-01 0.17202E-01 0.17409E-01 0.29654E-01 0.28888E-01
 0.26768E-01 0.23989E-01 0.21869E-01 0.21791E-01 0.24554E-01 0.30261E-01 0.38302E-01 0.47301E-01 0.55366E-01 0.60824E-01
 0.62735E-01 0.60824E-01 0.55366E-01 0.47301E-01 0.38302E-01 0.30261E-01 0.24554E-01 0.21791E-01 0.21869E-01 0.23989E-01
 0.26768E-01 0.28888E-01 0.10010     0.94480E-01 0.79294E-01 0.59767E-01 0.42842E-01 0.32608E-01 0.29045E-01 0.30663E-01
 0.35937E-01 0.43111E-01 0.50199E-01 0.55366E-01 0.57264E-01 0.55366E-01 0.50199E-01 0.43111E-01 0.35937E-01 0.30663E-01
 0.29045E-01 0.32608E-01 0.42842E-01 0.59767E-01 0.79294E-01 0.94480E-01 0.30460     0.28819     0.24129     0.17460    
 0.10983     0.65557E-01 0.43046E-01 0.34675E-01 0.34261E-01 0.38020E-01 0.43111E-01 0.47301E-01 0.48933E-01 0.47301E-01
 0.43111E-01 0.38020E-01 0.34261E-01 0.34675E-01 0.43046E-01 0.65557E-01 0.10983     0.17460     0.24129     0.28819    
 0.55901     0.54179     0.48770     0.39293     0.26849     0.15403     0.82551E-01 0.49213E-01 0.36773E-01 0.34261E-01
 0.35937E-01 0.38302E-01 0.39322E-01 0.38302E-01 0.35937E-01 0.34261E-01 0.36773E-01 0.49213E-01 0.82551E-01 0.15403    
 0.26849     0.39293     0.48770     0.54179     0.72785     0.71726     0.68243     0.61312     0.49420     0.33076    
 0.17928     0.88928E-01 0.49213E-01 0.34675E-01 0.30663E-01 0.30261E-01 0.30383E-01 0.30261E-01 0.30663E-01 0.34675E-01
 0.49213E-01 0.88928E-01 0.17928     0.33076     0.49420     0.61312     0.68243     0.71726     0.81812     0.81227    
 0.79274     0.75252     0.67644     0.54211     0.35216     0.17928     0.82551E-01 0.43046E-01 0.29045E-01 0.24554E-01
 0.23532E-01 0.24554E-01 0.29045E-01 0.43046E-01 0.82551E-01 0.17928     0.35216     0.54211     0.67644     0.75252    
 0.79274     0.81227     0.86283     0.85993     0.84958     0.82668     0.78139     0.69532     0.54211     0.33076    
 0.15403     0.65557E-01 0.32608E-01 0.21791E-01 0.19295E-01 0.21791E-01 0.32608E-01 0.65557E-01 0.15403     0.33076    
 0.54211     0.69532     0.78139     0.82668     0.84958     0.85993     0.87723     0.87704     0.87420     0.86316    
 0.83624     0.78139     0.67644     0.49420     0.26849     0.10983     0.42842E-01 0.21869E-01 0.17397E-01 0.21869E-01
 0.42842E-01 0.10983     0.26849     0.49420     0.67644     0.78139     0.83624     0.86316     0.87420     0.87704    
 0.86445     0.86861     0.87597     0.87682     0.86316     0.82668     0.75252     0.61312     0.39293     0.17460    
 0.59767E-01 0.23989E-01 0.17010E-01 0.23989E-01 0.59767E-01 0.17460     0.39293     0.61312     0.75252     0.82668    
 0.86316     0.87682     0.87597     0.86861     0.82173     0.83453     0.85953     0.87597     0.87420     0.84958    
 0.79274     0.68243     0.48769     0.24129     0.79294E-01 0.26768E-01 0.17202E-01 0.26768E-01 0.79294E-01 0.24129    
 0.48769     0.68243     0.79274     0.84958     0.87420     0.87597     0.85953     0.83453     0.76008     0.78562    
 0.83453     0.86861     0.87704     0.85993     0.81227     0.71726     0.54179     0.28819     0.94480E-01 0.28888E-01
 0.17409E-01 0.28888E-01 0.94480E-01 0.28819     0.54179     0.71726     0.81227     0.85993     0.87704     0.86861    
 0.83453     0.78562     0.72756     0.76008     0.82173     0.86444     0.87723     0.86283     0.81812     0.72785    
 0.55901     0.30460     0.10010     0.29654E-01 0.17481E-01 0.29654E-01 0.10010     0.30460     0.55901     0.72785    
 0.81812     0.86283     0.87723     0.86444     0.82173     0.76008     0.76008     0.78562     0.83453     0.86861    
 0.87704     0.85993     0.81227     0.71726     0.54179     0.28819     0.94480E-01 0.28888E-01 0.17409E-01 0.28888E-01
 0.94480E-01 0.28819     0.54179     0.71726     0.81227     0.85993     0.87704     0.86861     0.83453     0.78562    
 0.82173     0.83453     0.85953     0.87597     0.87420     0.84958     0.79274     0.68243     0.48769     0.24129    
 0.79294E-01 0.26768E-01 0.17202E-01 0.26768E-01 0.79294E-01 0.24129     0.48769     0.68243     0.79274     0.84958    
 0.87420     0.87597     0.85953     0.83453     0.86445     0.86861     0.87597     0.87682     0.86316     0.82668    
 0.75252     0.61312     0.39293     0.17460     0.59767E-01 0.23989E-01 0.17010E-01 0.23989E-01 0.59767E-01 0.17460    
 0.39293     0.61312     0.75252     0.82668     0.86316     0.87682     0.87597     0.86861     0.87723     0.87704    
 0.87420     0.86316     0.83624     0.78139     0.67644     0.49420     0.26849     0.10983     0.42842E-01 0.21869E-01
 0.17397E-01 0.21869E-01 0.42842E-01 0.10983     0.26849     0.49420     0.67644     0.78139     0.83624     0.86316    
 0.87420     0.87704     0.86283     0.85993     0.84958     0.82668     0.78139     0.69532     0.54211     0.33076    
 0.15403     0.65557E-01 0.32608E-01 0.21791E-01 0.19295E-01 0.21791E-01 0.32608E-01 0.65557E-01 0.15403     0.33076    
 0.54211     0.69532     0.78139     0.82668     0.84958     0.85993     0.81812     0.81227     0.79274     0.75252    
 0.67644     0.54211     0.35216     0.17928     0.82551E-01 0.43046E-01 0.29045E-01 0.24554E-01 0.23532E-01 0.24554E-01
 0.29045E-01 0.43046E-01 0.82551E-01 0.17928     0.35216     0.54211     0.67644     0.75252     0.79274     0.81227    
 0.72785     0.71726     0.68243     0.61312     0.49420     0.33076     0.17928     0.88928E-01 0.49213E-01 0.34675E-01
 0.30663E-01 0.30261E-01 0.30383E-01 0.30261E-01 0.30663E-01 0.34675E-01 0.49213E-01 0.88928E-01 0.17928     0.33076    
 0.49420     0.61312     0.68243     0.71726     0.55901     0.54179     0.48770     0.39293     0.26849     0.15403    
 0.82551E-01 0.49213E-01 0.36773E-01 0.34261E-01 0.35937E-01 0.38302E-01 0.39322E-01 0.38302E-01 0.35937E-01 0.34261E-01
 0.36773E-01 0.49213E-01 0.82551E-01 0.15403     0.26849     0.39293     0.48770     0.54179     0.30460     0.28819    
 0.24129     0.17460     0.10983     0.65557E-01 0.43046E-01 0.34675E-01 0.34261E-01 0.38020E-01 0.43111E-01 0.47301E-01
 0.48933E-01 0.47301E-01 0.43111E-01 0.38020E-01 0.34261E-01 0.34675E-01 0.43046E-01 0.65557E-01 0.10983     0.17460    
 0.24129     0.28819     0.10010     0.94480E-01 0.79294E-01 0.59767E-01 0.42842E-01 0.32608E-01 0.29045E-01 0.30663E-01
 0.35937E-01 0.43111E-01 0.50199E-01 0.55366E-01 0.57264E-01 0.55366E-01 0.50199E-01 0.43111E-01 0.35937E-01 0.30663E-01
 0.29045E-01 0.32608E-01 0.42842E-01 0.59767E-01 0.79294E-01 0.94480E-01 0.29654E-01 0.28888E-01 0.26768E-01 0.23989E-01
 0.21869E-01 0.21791E-01 0.24554E-01 0.30261E-01 0.38302E-01 0.47301E-01 0.55366E-01 0.60824E-01 0.62735E-01 0.60824E-01
 0.55366E-01 0.47301E-01 0.38302E-01 0.30261E-01 0.24554E-01 0.21791E-01 0.21869E-01 0.23989E-01 0.26768E-01 0.28888E-01
 0.14639E-01 0.14456E-01 0.14033E-01 0.13679E-01 0.13817E-01 0.14999E-01 0.17770E-01 0.22367E-01 0.28432E-01 0.34984E-01
 0.40759E-01 0.44673E-01 0.46054E-01 0.44673E-01 0.40759E-01 0.34984E-01 0.28432E-01 0.22367E-01 0.17770E-01 0.14999E-01
 0.13817E-01 0.13679E-01 0.14033E-01 0.14456E-01 0.23994E-01 0.23169E-01 0.21084E-01 0.18665E-01 0.16932E-01 0.16693E-01
 0.18432E-01 0.22235E-01 0.27679E-01 0.33820E-01 0.39409E-01 0.43288E-01 0.44673E-01 0.43288E-01 0.39409E-01 0.33820E-01
 0.27679E-01 0.22235E-01 0.18432E-01 0.16693E-01 0.16932E-01 0.18665E-01 0.21084E-01 0.23169E-01 0.78064E-01 0.72849E-01
 0.59554E-01 0.43895E-01 0.31265E-01 0.23860E-01 0.21273E-01 0.22359E-01 0.25970E-01 0.30878E-01 0.35776E-01 0.39409E-01
 0.40759E-01 0.39409E-01 0.35776E-01 0.30878E-01 0.25970E-01 0.22359E-01 0.21273E-01 0.23860E-01 0.31265E-01 0.43895E-01
 0.59554E-01 0.72849E-01 0.24688     0.23067     0.18634     0.12857     0.77877E-01 0.45789E-01 0.30224E-01 0.24722E-01
 0.24673E-01 0.27352E-01 0.30878E-01 0.33820E-01 0.34984E-01 0.33820E-01 0.30878E-01 0.27352E-01 0.24673E-01 0.24722E-01
 0.30224E-01 0.45789E-01 0.77877E-01 0.12857     0.18634     0.23067     0.49307     0.47356     0.41344     0.31493    
 0.20024     0.10816     0.56433E-01 0.33918E-01 0.26011E-01 0.24673E-01 0.25970E-01 0.27679E-01 0.28432E-01 0.27679E-01
 0.25970E-01 0.24673E-01 0.26011E-01 0.33918E-01 0.56433E-01 0.10816     0.20024     0.31493     0.41344     0.47356    
 0.68219     0.66913     0.62604     0.54214     0.40906     0.25039     0.12568     0.60403E-01 0.33918E-01 0.24722E-01
 0.22359E-01 0.22235E-01 0.22367E-01 0.22235E-01 0.22359E-01 0.24722E-01 0.33918E-01 0.60403E-01 0.12568     0.25039    
 0.40906     0.54214     0.62604     0.66913     0.79086     0.78330     0.75806     0.70637     0.61129     0.45635    
 0.26819     0.12568     0.56433E-01 0.30224E-01 0.21273E-01 0.18432E-01 0.17770E-01 0.18432E-01 0.21273E-01 0.30224E-01
 0.56433E-01 0.12568     0.26819     0.45635     0.61129     0.70637     0.75806     0.78330     0.84941     0.84504    
 0.83021     0.79920     0.74032     0.63259     0.45635     0.25039     0.10816     0.45789E-01 0.23860E-01 0.16693E-01
 0.14999E-01 0.16693E-01 0.23860E-01 0.45789E-01 0.10816     0.25039     0.45635     0.63259     0.74032     0.79920    
 0.83021     0.84504     0.87767     0.87551     0.86739     0.84866     0.81113     0.74032     0.61129     0.40906    
 0.20024     0.77877E-01 0.31265E-01 0.16932E-01 0.13817E-01 0.16932E-01 0.31265E-01 0.77877E-01 0.20024     0.40906    
 0.61129     0.74032     0.81113     0.84866     0.86739     0.87551     0.88524     0.88524     0.88300     0.87316    
 0.84866     0.79920     0.70637     0.54214     0.31493     0.12857     0.43894E-01 0.18665E-01 0.13679E-01 0.18665E-01
 0.43894E-01 0.12857     0.31493     0.54214     0.70637     0.79920     0.84866     0.87316     0.88300     0.88524    
 0.87780     0.88060     0.88498     0.88300     0.86739     0.83021     0.75806     0.62604     0.41344     0.18634    
 0.59554E-01 0.21084E-01 0.14033E-01 0.21084E-01 0.59554E-01 0.18634     0.41344     0.62604     0.75806     0.83021    
 0.86739     0.88300     0.88498     0.88060     0.86359     0.86950     0.88060     0.88524     0.87551     0.84504    
 0.78330     0.66913     0.47356     0.23067     0.72849E-01 0.23169E-01 0.14456E-01 0.23169E-01 0.72849E-01 0.23067    
 0.47356     0.66913     0.78330     0.84504     0.87551     0.88524     0.88060     0.86950     0.85617     0.86359    
 0.87780     0.88523     0.87767     0.84941     0.79086     0.68219     0.49307     0.24688     0.78064E-01 0.23994E-01
 0.14639E-01 0.23994E-01 0.78064E-01 0.24688     0.49307     0.68219     0.79086     0.84941     0.87767     0.88523    
 0.87780     0.86359     0.86359     0.86950     0.88060     0.88524     0.87551     0.84504     0.78330     0.66913    
 0.47356     0.23067     0.72849E-01 0.23169E-01 0.14456E-01 0.23169E-01 0.72849E-01 0.23067     0.47356     0.66913    
 0.78330     0.84504     0.87551     0.88524     0.88060     0.86950     0.87780     0.88060     0.88498     0.88300    
 0.86739     0.83021     0.75806     0.62604     0.41344     0.18634     0.59554E-01 0.21084E-01 0.14033E-01 0.21084E-01
 0.59554E-01 0.18634     0.41344     0.62604     0.75806     0.83021     0.86739     0.88300     0.88498     0.88060    
 0.88524     0.88524     0.88300     0.87316     0.84866     0.79920     0.70637     0.54214     0.31493     0.12857    
 0.43894E-01 0.18665E-01 0.13679E-01 0.18665E-01 0.43894E-01 0.12857     0.31493     0.54214     0.70637     0.79920    
 0.84866     0.87316     0.88300     0.88524     0.87767     0.87551     0.86739     0.84866     0.81113     0.74032    
 0.61129     0.40906     0.20024     0.77877E-01 0.31265E-01 0.16932E-01 0.13817E-01 0.16932E-01 0.31265E-01 0.77877E-01
 0.20024     0.40906     0.61129     0.74032     0.81113     0.84866     0.86739     0.87551     0.84941     0.84504    
 0.83021     0.79920     0.74032     0.63259     0.45635     0.25039     0.10816     0.45789E-01 0.23860E-01 0.16693E-01
 0.14999E-01 0.16693E-01 0.23860E-01 0.45789E-01 0.10816     0.25039     0.45635     0.63259     0.74032     0.79920    
 0.83021     0.84504     0.79086     0.78330     0.75806     0.70637     0.61129     0.45635     0.26819     0.12568    
 0.56433E-01 0.30224E-01 0.21273E-01 0.18432E-01 0.17770E-01 0.18432E-01 0.21273E-01 0.30224E-01 0.56433E-01 0.12568    
 0.26819     0.45635     0.61129     0.70637     0.75806     0.78330     0.68219     0.66913     0.62604     0.54214    
 0.40906     0.25039     0.12568     0.60403E-01 0.33918E-01 0.24722E-01 0.22359E-01 0.22235E-01 0.22367E-01 0.22235E-01
 0.22359E-01 0.24722E-01 0.33918E-01 0.60403E-01 0.12568     0.25039     0.40906     0.54214     0.62604     0.66913    
 0.49307     0.47356     0.41344     0.31493     0.20024     0.10816     0.56433E-01 0.33918E-01 0.26011E-01 0.24673E-01
 0.25970E-01 0.27679E-01 0.28432E-01 0.27679E-01 0.25970E-01 0.24673E-01 0.26011E-01 0.33918E-01 0.56433E-01 0.10816    
 0.20024     0.31493     0.41344     0.47356     0.24688     0.23067     0.18634     0.12857     0.77877E-01 0.45789E-01
 0.30224E-01 0.24722E-01 0.24673E-01 0.27352E-01 0.30878E-01 0.33820E-01 0.34984E-01 0.33820E-01 0.30878E-01 0.27352E-01
 0.24673E-01 0.24722E-01 0.30224E-01 0.45789E-01 0.77877E-01 0.12857     0.18634     0.23067     0.78064E-01 0.72849E-01
 0.59554E-01 0.43895E-01 0.31265E-01 0.23860E-01 0.21273E-01 0.22359E-01 0.25970E-01 0.30878E-01 0.35776E-01 0.39409E-01
 0.40759E-01 0.39409E-01 0.35776E-01 0.30878E-01 0.25970E-01 0.22359E-01 0.21273E-01 0.23860E-01 0.31265E-01 0.43895E-01
 0.59554E-01 0.72849E-01 0.23994E-01 0.23169E-01 0.21084E-01 0.18665E-01 0.16932E-01 0.16693E-01 0.18432E-01 0.22235E-01
 0.27679E-01 0.33820E-01 0.39409E-01 0.43288E-01 0.44673E-01 0.43288E-01 0.39409E-01 0.33820E-01 0.27679E-01 0.22235E-01
 0.18432E-01 0.16693E-01 0.16932E-01 0.18665E-01 0.21084E-01 0.23169E-01 0.11720E-01 0.11578E-01 0.11351E-01 0.11491E-01
 0.12560E-01 0.15428E-01 0.21438E-01 0.32043E-01 0.47531E-01 0.65697E-01 0.82479E-01 0.94079E-01 0.98192E-01 0.94079E-01
 0.82479E-01 0.65697E-01 0.47531E-01 0.32043E-01 0.21438E-01 0.15428E-01 0.12560E-01 0.11491E-01 0.11351E-01 0.11578E-01
 0.18022E-01 0.17352E-01 0.15840E-01 0.14502E-01 0.14270E-01 0.16039E-01 0.20961E-01 0.30336E-01 0.44610E-01 0.61970E-01
 0.78451E-01 0.89984E-01 0.94079E-01 0.89984E-01 0.78451E-01 0.61970E-01 0.44610E-01 0.30336E-01 0.20961E-01 0.16039E-01
 0.14270E-01 0.14502E-01 0.15840E-01 0.17352E-01 0.53342E-01 0.49101E-01 0.39123E-01 0.28845E-01 0.21851E-01 0.19061E-01
 0.20519E-01 0.26583E-01 0.37566E-01 0.52298E-01 0.67367E-01 0.78451E-01 0.82479E-01 0.78451E-01 0.67367E-01 0.52298E-01
 0.37566E-01 0.26583E-01 0.20519E-01 0.19061E-01 0.21851E-01 0.28845E-01 0.39123E-01 0.49101E-01 0.17269     0.15758    
 0.11968     0.77381E-01 0.46270E-01 0.29468E-01 0.23141E-01 0.23808E-01 0.29949E-01 0.40324E-01 0.52298E-01 0.61970E-01
 0.65697E-01 0.61970E-01 0.52298E-01 0.40324E-01 0.29949E-01 0.23808E-01 0.23141E-01 0.29468E-01 0.46270E-01 0.77381E-01
 0.11968     0.15758     0.39108     0.36797     0.30094     0.20606     0.11775     0.61428E-01 0.34874E-01 0.25478E-01
 0.25047E-01 0.29949E-01 0.37566E-01 0.44610E-01 0.47531E-01 0.44610E-01 0.37566E-01 0.29949E-01 0.25047E-01 0.25478E-01
 0.34874E-01 0.61428E-01 0.11775     0.20606     0.30094     0.36797     0.60403     0.58595     0.52712     0.42007    
 0.27719     0.14747     0.70207E-01 0.36868E-01 0.25478E-01 0.23808E-01 0.26583E-01 0.30336E-01 0.32043E-01 0.30336E-01
 0.26583E-01 0.23808E-01 0.25478E-01 0.36868E-01 0.70207E-01 0.14747     0.27719     0.42007     0.52712     0.58595    
 0.74262     0.73178     0.69533     0.62094     0.49200     0.31625     0.15839     0.70207E-01 0.34874E-01 0.23141E-01
 0.20519E-01 0.20961E-01 0.21438E-01 0.20961E-01 0.20519E-01 0.23141E-01 0.34874E-01 0.70207E-01 0.15839     0.31625    
 0.49200     0.62094     0.69533     0.73178     0.82151     0.81497     0.79307     0.74783     0.66274     0.51553    
 0.31625     0.14747     0.61428E-01 0.29468E-01 0.19061E-01 0.16039E-01 0.15428E-01 0.16039E-01 0.19061E-01 0.29468E-01
 0.61428E-01 0.14747     0.31625     0.51553     0.66274     0.74783     0.79307     0.81497     0.86502     0.86089    
 0.84697     0.81810     0.76345     0.66274     0.49200     0.27719     0.11775     0.46270E-01 0.21851E-01 0.14270E-01
 0.12560E-01 0.14270E-01 0.21851E-01 0.46270E-01 0.11775     0.27719     0.49200     0.66274     0.76345     0.81810    
 0.84697     0.86089     0.88702     0.88450     0.87555     0.85601     0.81810     0.74783     0.62094     0.42007    
 0.20606     0.77380E-01 0.28845E-01 0.14502E-01 0.11491E-01 0.14502E-01 0.28845E-01 0.77380E-01 0.20606     0.42007    
 0.62094     0.74783     0.81810     0.85601     0.87555     0.88450     0.89586     0.89459     0.88923     0.87555    
 0.84697     0.79306     0.69533     0.52712     0.30094     0.11968     0.39123E-01 0.15840E-01 0.11351E-01 0.15840E-01
 0.39123E-01 0.11968     0.30094     0.52712     0.69533     0.79306     0.84697     0.87555     0.88923     0.89459    
 0.89775     0.89745     0.89459     0.88450     0.86089     0.81497     0.73178     0.58595     0.36797     0.15758    
 0.49101E-01 0.17352E-01 0.11578E-01 0.17352E-01 0.49101E-01 0.15758     0.36797     0.58595     0.73178     0.81497    
 0.86089     0.88450     0.89459     0.89745     0.89768     0.89775     0.89586     0.88702     0.86501     0.82151    
 0.74262     0.60403     0.39108     0.17269     0.53342E-01 0.18022E-01 0.11720E-01 0.18022E-01 0.53342E-01 0.17269    
 0.39108     0.60403     0.74262     0.82151     0.86501     0.88702     0.89586     0.89775     0.89775     0.89745    
 0.89459     0.88450     0.86089     0.81497     0.73178     0.58595     0.36797     0.15758     0.49101E-01 0.17352E-01
 0.11578E-01 0.17352E-01 0.49101E-01 0.15758     0.36797     0.58595     0.73178     0.81497     0.86089     0.88450    
 0.89459     0.89745     0.89586     0.89459     0.88923     0.87555     0.84697     0.79306     0.69533     0.52712    
 0.30094     0.11968     0.39123E-01 0.15840E-01 0.11351E-01 0.15840E-01 0.39123E-01 0.11968     0.30094     0.52712    
 0.69533     0.79306     0.84697     0.87555     0.88923     0.89459     0.88702     0.88450     0.87555     0.85601    
 0.81810     0.74783     0.62094     0.42007     0.20606     0.77380E-01 0.28845E-01 0.14502E-01 0.11491E-01 0.14502E-01
 0.28845E-01 0.77380E-01 0.20606     0.42007     0.62094     0.74783     0.81810     0.85601     0.87555     0.88450    
 0.86502     0.86089     0.84697     0.81810     0.76345     0.66274     0.49200     0.27719     0.11775     0.46270E-01
 0.21851E-01 0.14270E-01 0.12560E-01 0.14270E-01 0.21851E-01 0.46270E-01 0.11775     0.27719     0.49200     0.66274    
 0.76345     0.81810     0.84697     0.86089     0.82151     0.81497     0.79307     0.74783     0.66274     0.51553    
 0.31625     0.14747     0.61428E-01 0.29468E-01 0.19061E-01 0.16039E-01 0.15428E-01 0.16039E-01 0.19061E-01 0.29468E-01
 0.61428E-01 0.14747     0.31625     0.51553     0.66274     0.74783     0.79307     0.81497     0.74262     0.73178    
 0.69533     0.62094     0.49200     0.31625     0.15839     0.70207E-01 0.34874E-01 0.23141E-01 0.20519E-01 0.20961E-01
 0.21438E-01 0.20961E-01 0.20519E-01 0.23141E-01 0.34874E-01 0.70207E-01 0.15839     0.31625     0.49200     0.62094    
 0.69533     0.73178     0.60403     0.58595     0.52712     0.42007     0.27719     0.14747     0.70207E-01 0.36868E-01
 0.25478E-01 0.23808E-01 0.26583E-01 0.30336E-01 0.32043E-01 0.30336E-01 0.26583E-01 0.23808E-01 0.25478E-01 0.36868E-01
 0.70207E-01 0.14747     0.27719     0.42007     0.52712     0.58595     0.39108     0.36797     0.30094     0.20606    
 0.11775     0.61428E-01 0.34874E-01 0.25478E-01 0.25047E-01 0.29949E-01 0.37566E-01 0.44610E-01 0.47531E-01 0.44610E-01
 0.37566E-01 0.29949E-01 0.25047E-01 0.25478E-01 0.34874E-01 0.61428E-01 0.11775     0.20606     0.30094     0.36797    
 0.17269     0.15758     0.11968     0.77381E-01 0.46270E-01 0.29468E-01 0.23141E-01 0.23808E-01 0.29949E-01 0.40324E-01
 0.52298E-01 0.61970E-01 0.65697E-01 0.61970E-01 0.52298E-01 0.40324E-01 0.29949E-01 0.23808E-01 0.23141E-01 0.29468E-01
 0.46270E-01 0.77381E-01 0.11968     0.15758     0.53342E-01 0.49101E-01 0.39123E-01 0.28845E-01 0.21851E-01 0.19061E-01
 0.20519E-01 0.26583E-01 0.37566E-01 0.52298E-01 0.67367E-01 0.78451E-01 0.82479E-01 0.78451E-01 0.67367E-01 0.52298E-01
 0.37566E-01 0.26583E-01 0.20519E-01 0.19061E-01 0.21851E-01 0.28845E-01 0.39123E-01 0.49101E-01 0.18022E-01 0.17352E-01
 0.15840E-01 0.14502E-01 0.14270E-01 0.16039E-01 0.20961E-01 0.30336E-01 0.44610E-01 0.61970E-01 0.78451E-01 0.89984E-01
 0.94079E-01 0.89984E-01 0.78451E-01 0.61970E-01 0.44610E-01 0.30336E-01 0.20961E-01 0.16039E-01 0.14270E-01 0.14502E-01
 0.15840E-01 0.17352E-01 0.95065E-02 0.95083E-02 0.97907E-02 0.11066E-01 0.14716E-01 0.23801E-01 0.44260E-01 0.83423E-01
 0.14239     0.21016     0.27037     0.31069     0.32476     0.31069     0.27037     0.21016     0.14239     0.83423E-01
 0.44260E-01 0.23801E-01 0.14716E-01 0.11066E-01 0.97907E-02 0.95083E-02 0.13217E-01 0.12856E-01 0.12282E-01 0.12554E-01
 0.15092E-01 0.22542E-01 0.40084E-01 0.74872E-01 0.12974     0.19576     0.25603     0.29660     0.31069     0.29660    
 0.25603     0.19576     0.12974     0.74872E-01 0.40084E-01 0.22542E-01 0.15092E-01 0.12554E-01 0.12282E-01 0.12856E-01
 0.32368E-01 0.29694E-01 0.24023E-01 0.19225E-01 0.17574E-01 0.20649E-01 0.31522E-01 0.55899E-01 0.98961E-01 0.15716    
 0.21521     0.25603     0.27037     0.25603     0.21521     0.15716     0.98961E-01 0.55899E-01 0.31522E-01 0.20649E-01
 0.17574E-01 0.19225E-01 0.24023E-01 0.29694E-01 0.99542E-01 0.88465E-01 0.63933E-01 0.41060E-01 0.27229E-01 0.22319E-01
 0.25303E-01 0.38134E-01 0.65291E-01 0.10802     0.15716     0.19576     0.21016     0.19576     0.15716     0.10802    
 0.65291E-01 0.38134E-01 0.25303E-01 0.22319E-01 0.27229E-01 0.41060E-01 0.63933E-01 0.88465E-01 0.25885     0.23483    
 0.17419     0.10646     0.58128E-01 0.33834E-01 0.25676E-01 0.27990E-01 0.40604E-01 0.65291E-01 0.98961E-01 0.12974    
 0.14239     0.12974     0.98961E-01 0.65291E-01 0.40604E-01 0.27990E-01 0.25676E-01 0.33834E-01 0.58128E-01 0.10646    
 0.17419     0.23483     0.47722     0.45131     0.37387     0.25773     0.14368     0.70550E-01 0.37601E-01 0.26914E-01
 0.27990E-01 0.38134E-01 0.55899E-01 0.74872E-01 0.83423E-01 0.74872E-01 0.55899E-01 0.38134E-01 0.27990E-01 0.26914E-01
 0.37601E-01 0.70550E-01 0.14368     0.25773     0.37387     0.45131     0.65693     0.63940     0.58156     0.47184    
 0.31527     0.16509     0.75074E-01 0.37601E-01 0.25676E-01 0.25303E-01 0.31522E-01 0.40084E-01 0.44260E-01 0.40084E-01
 0.31522E-01 0.25303E-01 0.25676E-01 0.37601E-01 0.75074E-01 0.16509     0.31527     0.47184     0.58156     0.63940    
 0.76834     0.75780     0.72243     0.64962     0.51978     0.33538     0.16509     0.70550E-01 0.33834E-01 0.22319E-01
 0.20649E-01 0.22542E-01 0.23801E-01 0.22542E-01 0.20649E-01 0.22319E-01 0.33834E-01 0.70550E-01 0.16509     0.33538    
 0.51978     0.64962     0.72243     0.75780     0.83244     0.82566     0.80315     0.75706     0.67043     0.51978    
 0.31526     0.14368     0.58127E-01 0.27229E-01 0.17574E-01 0.15092E-01 0.14716E-01 0.15092E-01 0.17574E-01 0.27229E-01
 0.58127E-01 0.14368     0.31526     0.51978     0.67043     0.75706     0.80315     0.82566     0.86859     0.86383    
 0.84809     0.81624     0.75706     0.64962     0.47184     0.25773     0.10646     0.41060E-01 0.19225E-01 0.12554E-01
 0.11066E-01 0.12554E-01 0.19225E-01 0.41060E-01 0.10646     0.25773     0.47184     0.64962     0.75706     0.81624    
 0.84809     0.86383     0.88798     0.88441     0.87246     0.84809     0.80315     0.72243     0.58156     0.37387    
 0.17419     0.63933E-01 0.24023E-01 0.12282E-01 0.97907E-02 0.12282E-01 0.24023E-01 0.63933E-01 0.17419     0.37387    
 0.58156     0.72243     0.80315     0.84809     0.87246     0.88441     0.89723     0.89432     0.88441     0.86383    
 0.82566     0.75780     0.63940     0.45131     0.23483     0.88465E-01 0.29694E-01 0.12856E-01 0.95082E-02 0.12856E-01
 0.29694E-01 0.88465E-01 0.23483     0.45131     0.63940     0.75780     0.82566     0.86383     0.88441     0.89432    
 0.89993     0.89723     0.88798     0.86859     0.83244     0.76834     0.65693     0.47722     0.25885     0.99542E-01
 0.32368E-01 0.13217E-01 0.95065E-02 0.13217E-01 0.32368E-01 0.99542E-01 0.25885     0.47722     0.65693     0.76834    
 0.83244     0.86859     0.88798     0.89723     0.89723     0.89432     0.88441     0.86383     0.82566     0.75780    
 0.63940     0.45131     0.23483     0.88465E-01 0.29694E-01 0.12856E-01 0.95082E-02 0.12856E-01 0.29694E-01 0.88465E-01
 0.23483     0.45131     0.63940     0.75780     0.82566     0.86383     0.88441     0.89432     0.88798     0.88441    
 0.87246     0.84809     0.80315     0.72243     0.58156     0.37387     0.17419     0.63933E-01 0.24023E-01 0.12282E-01
 0.97907E-02 0.12282E-01 0.24023E-01 0.63933E-01 0.17419     0.37387     0.58156     0.72243     0.80315     0.84809    
 0.87246     0.88441     0.86859     0.86383     0.84809     0.81624     0.75706     0.64962     0.47184     0.25773    
 0.10646     0.41060E-01 0.19225E-01 0.12554E-01 0.11066E-01 0.12554E-01 0.19225E-01 0.41060E-01 0.10646     0.25773    
 0.47184     0.64962     0.75706     0.81624     0.84809     0.86383     0.83244     0.82566     0.80315     0.75706    
 0.67043     0.51978     0.31526     0.14368     0.58127E-01 0.27229E-01 0.17574E-01 0.15092E-01 0.14716E-01 0.15092E-01
 0.17574E-01 0.27229E-01 0.58127E-01 0.14368     0.31526     0.51978     0.67043     0.75706     0.80315     0.82566    
 0.76834     0.75780     0.72243     0.64962     0.51978     0.33538     0.16509     0.70550E-01 0.33834E-01 0.22319E-01
 0.20649E-01 0.22542E-01 0.23801E-01 0.22542E-01 0.20649E-01 0.22319E-01 0.33834E-01 0.70550E-01 0.16509     0.33538    
 0.51978     0.64962     0.72243     0.75780     0.65693     0.63940     0.58156     0.47184     0.31527     0.16509    
 0.75074E-01 0.37601E-01 0.25676E-01 0.25303E-01 0.31522E-01 0.40084E-01 0.44260E-01 0.40084E-01 0.31522E-01 0.25303E-01
 0.25676E-01 0.37601E-01 0.75074E-01 0.16509     0.31527     0.47184     0.58156     0.63940     0.47722     0.45131    
 0.37387     0.25773     0.14368     0.70550E-01 0.37601E-01 0.26914E-01 0.27990E-01 0.38134E-01 0.55899E-01 0.74872E-01
 0.83423E-01 0.74872E-01 0.55899E-01 0.38134E-01 0.27990E-01 0.26914E-01 0.37601E-01 0.70550E-01 0.14368     0.25773    
 0.37387     0.45131     0.25885     0.23483     0.17419     0.10646     0.58128E-01 0.33834E-01 0.25676E-01 0.27990E-01
 0.40604E-01 0.65291E-01 0.98961E-01 0.12974     0.14239     0.12974     0.98961E-01 0.65291E-01 0.40604E-01 0.27990E-01
 0.25676E-01 0.33834E-01 0.58128E-01 0.10646     0.17419     0.23483     0.99542E-01 0.88465E-01 0.63933E-01 0.41060E-01
 0.27229E-01 0.22319E-01 0.25303E-01 0.38134E-01 0.65291E-01 0.10802     0.15716     0.19576     0.21016     0.19576    
 0.15716     0.10802     0.65291E-01 0.38134E-01 0.25303E-01 0.22319E-01 0.27229E-01 0.41060E-01 0.63933E-01 0.88465E-01
 0.32368E-01 0.29694E-01 0.24023E-01 0.19225E-01 0.17574E-01 0.20649E-01 0.31522E-01 0.55899E-01 0.98961E-01 0.15716    
 0.21521     0.25603     0.27037     0.25603     0.21521     0.15716     0.98961E-01 0.55899E-01 0.31522E-01 0.20649E-01
 0.17574E-01 0.19225E-01 0.24023E-01 0.29694E-01 0.13217E-01 0.12856E-01 0.12282E-01 0.12554E-01 0.15092E-01 0.22542E-01
 0.40084E-01 0.74872E-01 0.12974     0.19576     0.25603     0.29660     0.31069     0.29660     0.25603     0.19576    
 0.12974     0.74872E-01 0.40084E-01 0.22542E-01 0.15092E-01 0.12554E-01 0.12282E-01 0.12856E-01 0.77986E-02 0.81780E-02
 0.96624E-02 0.13754E-01 0.24910E-01 0.54445E-01 0.12214     0.23863     0.37816     0.49953     0.58395     0.63179    
 0.64717     0.63179     0.58395     0.49953     0.37816     0.23863     0.12214     0.54445E-01 0.24910E-01 0.13754E-01
 0.96624E-02 0.81780E-02 0.97390E-02 0.99079E-02 0.10824E-01 0.13959E-01 0.23148E-01 0.48023E-01 0.10700     0.21470    
 0.35249     0.47776     0.56608     0.61589     0.63179     0.61589     0.56608     0.47776     0.35249     0.21470    
 0.10700     0.48023E-01 0.23148E-01 0.13959E-01 0.10824E-01 0.99079E-02 0.18625E-01 0.17619E-01 0.15857E-01 0.15772E-01
 0.20275E-01 0.35318E-01 0.74425E-01 0.15640     0.28089     0.41117     0.50974     0.56608     0.58395     0.56608    
 0.50974     0.41117     0.28089     0.15640     0.74425E-01 0.35318E-01 0.20275E-01 0.15772E-01 0.15857E-01 0.17619E-01
 0.48447E-01 0.42959E-01 0.31952E-01 0.23456E-01 0.20880E-01 0.26228E-01 0.45863E-01 0.94296E-01 0.18523     0.30445    
 0.41117     0.47776     0.49953     0.47776     0.41117     0.30445     0.18523     0.94296E-01 0.45863E-01 0.26228E-01
 0.20880E-01 0.23456E-01 0.31952E-01 0.42959E-01 0.13359     0.11678     0.80571E-01 0.48513E-01 0.30542E-01 0.25059E-01
 0.30499E-01 0.51992E-01 0.10171     0.18523     0.28089     0.35249     0.37816     0.35249     0.28089     0.18523    
 0.10171     0.51992E-01 0.30499E-01 0.25059E-01 0.30542E-01 0.48513E-01 0.80571E-01 0.11678     0.30294     0.27401    
 0.20094     0.11957     0.62765E-01 0.35587E-01 0.27444E-01 0.32063E-01 0.51992E-01 0.94296E-01 0.15640     0.21470    
 0.23863     0.21470     0.15640     0.94296E-01 0.51992E-01 0.32063E-01 0.27444E-01 0.35587E-01 0.62765E-01 0.11957    
 0.20094     0.27401     0.50695     0.47942     0.39680     0.27159     0.14831     0.70891E-01 0.37402E-01 0.27444E-01
 0.30499E-01 0.45863E-01 0.74425E-01 0.10699     0.12214     0.10699     0.74425E-01 0.45863E-01 0.30499E-01 0.27444E-01
 0.37402E-01 0.70891E-01 0.14831     0.27159     0.39680     0.47942     0.66598     0.64764     0.58716     0.47258    
 0.31050     0.15873     0.70891E-01 0.35587E-01 0.25059E-01 0.26228E-01 0.35318E-01 0.48023E-01 0.54445E-01 0.48023E-01
 0.35318E-01 0.26228E-01 0.25059E-01 0.35587E-01 0.70891E-01 0.15873     0.31050     0.47258     0.58716     0.64764    
 0.76467     0.75317     0.71454     0.63545     0.49747     0.31050     0.14831     0.62765E-01 0.30542E-01 0.20880E-01
 0.20275E-01 0.23148E-01 0.24910E-01 0.23148E-01 0.20275E-01 0.20880E-01 0.30542E-01 0.62765E-01 0.14831     0.31050    
 0.49747     0.63545     0.71454     0.75317     0.82176     0.81388     0.78768     0.73418     0.63545     0.47258    
 0.27159     0.11957     0.48513E-01 0.23456E-01 0.15772E-01 0.13959E-01 0.13754E-01 0.13959E-01 0.15772E-01 0.23456E-01
 0.48513E-01 0.11957     0.27159     0.47258     0.63545     0.73418     0.78768     0.81388     0.85376     0.84768    
 0.82770     0.78768     0.71454     0.58716     0.39680     0.20094     0.80571E-01 0.31952E-01 0.15857E-01 0.10824E-01
 0.96624E-02 0.10824E-01 0.15857E-01 0.31952E-01 0.80571E-01 0.20094     0.39680     0.58716     0.71454     0.78768    
 0.82770     0.84768     0.87001     0.86478     0.84768     0.81388     0.75317     0.64764     0.47942     0.27401    
 0.11678     0.42959E-01 0.17619E-01 0.99079E-02 0.81780E-02 0.99079E-02 0.17619E-01 0.42959E-01 0.11678     0.27401    
 0.47942     0.64764     0.75317     0.81388     0.84768     0.86478     0.87500     0.87001     0.85376     0.82176    
 0.76467     0.66598     0.50695     0.30294     0.13359     0.48447E-01 0.18625E-01 0.97390E-02 0.77986E-02 0.97390E-02
 0.18625E-01 0.48447E-01 0.13359     0.30294     0.50695     0.66598     0.76467     0.82176     0.85376     0.87001    
 0.87001     0.86478     0.84768     0.81388     0.75317     0.64764     0.47942     0.27401     0.11678     0.42959E-01
 0.17619E-01 0.99079E-02 0.81780E-02 0.99079E-02 0.17619E-01 0.42959E-01 0.11678     0.27401     0.47942     0.64764    
 0.75317     0.81388     0.84768     0.86478     0.85376     0.84768     0.82770     0.78768     0.71454     0.58716    
 0.39680     0.20094     0.80571E-01 0.31952E-01 0.15857E-01 0.10824E-01 0.96624E-02 0.10824E-01 0.15857E-01 0.31952E-01
 0.80571E-01 0.20094     0.39680     0.58716     0.71454     0.78768     0.82770     0.84768     0.82176     0.81388    
 0.78768     0.73418     0.63545     0.47258     0.27159     0.11957     0.48513E-01 0.23456E-01 0.15772E-01 0.13959E-01
 0.13754E-01 0.13959E-01 0.15772E-01 0.23456E-01 0.48513E-01 0.11957     0.27159     0.47258     0.63545     0.73418    
 0.78768     0.81388     0.76467     0.75317     0.71454     0.63545     0.49747     0.31050     0.14831     0.62765E-01
 0.30542E-01 0.20880E-01 0.20275E-01 0.23148E-01 0.24910E-01 0.23148E-01 0.20275E-01 0.20880E-01 0.30542E-01 0.62765E-01
 0.14831     0.31050     0.49747     0.63545     0.71454     0.75317     0.66598     0.64764     0.58716     0.47258    
 0.31050     0.15873     0.70891E-01 0.35587E-01 0.25059E-01 0.26228E-01 0.35318E-01 0.48023E-01 0.54445E-01 0.48023E-01
 0.35318E-01 0.26228E-01 0.25059E-01 0.35587E-01 0.70891E-01 0.15873     0.31050     0.47258     0.58716     0.64764    
 0.50695     0.47942     0.39680     0.27159     0.14831     0.70891E-01 0.37402E-01 0.27444E-01 0.30499E-01 0.45863E-01
 0.74425E-01 0.10699     0.12214     0.10699     0.74425E-01 0.45863E-01 0.30499E-01 0.27444E-01 0.37402E-01 0.70891E-01
 0.14831     0.27159     0.39680     0.47942     0.30294     0.27401     0.20094     0.11957     0.62765E-01 0.35587E-01
 0.27444E-01 0.32063E-01 0.51992E-01 0.94296E-01 0.15640     0.21470     0.23863     0.21470     0.15640     0.94296E-01
 0.51992E-01 0.32063E-01 0.27444E-01 0.35587E-01 0.62765E-01 0.11957     0.20094     0.27401     0.13359     0.11678    
 0.80571E-01 0.48513E-01 0.30542E-01 0.25059E-01 0.30499E-01 0.51992E-01 0.10171     0.18523     0.28089     0.35249    
 0.37816     0.35249     0.28089     0.18523     0.10171     0.51992E-01 0.30499E-01 0.25059E-01 0.30542E-01 0.48513E-01
 0.80571E-01 0.11678     0.48447E-01 0.42959E-01 0.31952E-01 0.23456E-01 0.20880E-01 0.26228E-01 0.45863E-01 0.94296E-01
 0.18523     0.30445     0.41117     0.47776     0.49953     0.47776     0.41117     0.30445     0.18523     0.94296E-01
 0.45863E-01 0.26228E-01 0.20880E-01 0.23456E-01 0.31952E-01 0.42959E-01 0.18625E-01 0.17619E-01 0.15857E-01 0.15772E-01
 0.20275E-01 0.35318E-01 0.74425E-01 0.15640     0.28089     0.41117     0.50974     0.56608     0.58395     0.56608    
 0.50974     0.41117     0.28089     0.15640     0.74425E-01 0.35318E-01 0.20275E-01 0.15772E-01 0.15857E-01 0.17619E-01
 0.97390E-02 0.99079E-02 0.10824E-01 0.13959E-01 0.23148E-01 0.48023E-01 0.10700     0.21470     0.35249     0.47776    
 0.56608     0.61589     0.63179     0.61589     0.56608     0.47776     0.35249     0.21470     0.10700     0.48023E-01
 0.23148E-01 0.13959E-01 0.10824E-01 0.99079E-02 0.73853E-02 0.83105E-02 0.12066E-01 0.23343E-01 0.56609E-01 0.14151    
 0.29661     0.47886     0.62490     0.71870     0.77311     0.80118     0.80987     0.80118     0.77311     0.71870    
 0.62490     0.47886     0.29661     0.14151     0.56609E-01 0.23343E-01 0.12066E-01 0.83105E-02 0.83105E-02 0.90739E-02
 0.12201E-01 0.21634E-01 0.49557E-01 0.12320     0.26749     0.45063     0.60460     0.70480     0.76259     0.79211    
 0.80118     0.79211     0.76259     0.70480     0.60460     0.45063     0.26749     0.12320     0.49557E-01 0.21634E-01
 0.12201E-01 0.90739E-02 0.12066E-01 0.12201E-01 0.13446E-01 0.18738E-01 0.35746E-01 0.83953E-01 0.19457     0.36749    
 0.53875     0.65846     0.72783     0.76259     0.77311     0.76259     0.72783     0.65846     0.53875     0.36749    
 0.19457     0.83953E-01 0.35746E-01 0.18738E-01 0.13446E-01 0.12201E-01 0.23343E-01 0.21634E-01 0.18738E-01 0.18643E-01
 0.25710E-01 0.49864E-01 0.11470     0.24632     0.41977     0.56670     0.65846     0.70480     0.71870     0.70480    
 0.65846     0.56670     0.41977     0.24632     0.11470     0.49864E-01 0.25710E-01 0.18643E-01 0.18738E-01 0.21634E-01
 0.56609E-01 0.49557E-01 0.35746E-01 0.25710E-01 0.23420E-01 0.31527E-01 0.60193E-01 0.13269     0.26500     0.41977    
 0.53875     0.60460     0.62490     0.60460     0.53875     0.41977     0.26500     0.13269     0.60193E-01 0.31527E-01
 0.23420E-01 0.25710E-01 0.35746E-01 0.49557E-01 0.14151     0.12320     0.83953E-01 0.49864E-01 0.31527E-01 0.26838E-01
 0.34837E-01 0.63959E-01 0.13269     0.24632     0.36749     0.45063     0.47885     0.45063     0.36749     0.24632    
 0.13269     0.63959E-01 0.34837E-01 0.26838E-01 0.31527E-01 0.49864E-01 0.83953E-01 0.12320     0.29661     0.26749    
 0.19457     0.11470     0.60193E-01 0.34837E-01 0.28075E-01 0.34837E-01 0.60193E-01 0.11470     0.19457     0.26749    
 0.29661     0.26749     0.19457     0.11470     0.60193E-01 0.34837E-01 0.28075E-01 0.34837E-01 0.60193E-01 0.11470    
 0.19457     0.26749     0.47886     0.45063     0.36749     0.24632     0.13269     0.63959E-01 0.34837E-01 0.26838E-01
 0.31527E-01 0.49864E-01 0.83953E-01 0.12320     0.14151     0.12320     0.83953E-01 0.49864E-01 0.31527E-01 0.26838E-01
 0.34837E-01 0.63959E-01 0.13269     0.24632     0.36749     0.45063     0.62490     0.60460     0.53875     0.41977    
 0.26500     0.13269     0.60193E-01 0.31527E-01 0.23420E-01 0.25710E-01 0.35746E-01 0.49557E-01 0.56609E-01 0.49557E-01
 0.35746E-01 0.25710E-01 0.23420E-01 0.31527E-01 0.60193E-01 0.13269     0.26500     0.41977     0.53875     0.60460    
 0.71870     0.70480     0.65846     0.56670     0.41977     0.24632     0.11470     0.49864E-01 0.25710E-01 0.18643E-01
 0.18738E-01 0.21634E-01 0.23343E-01 0.21634E-01 0.18738E-01 0.18643E-01 0.25710E-01 0.49864E-01 0.11470     0.24632    
 0.41977     0.56670     0.65846     0.70480     0.77311     0.76259     0.72783     0.65846     0.53875     0.36749    
 0.19457     0.83953E-01 0.35746E-01 0.18738E-01 0.13446E-01 0.12201E-01 0.12066E-01 0.12201E-01 0.13446E-01 0.18738E-01
 0.35746E-01 0.83953E-01 0.19457     0.36749     0.53875     0.65846     0.72783     0.76259     0.80118     0.79211    
 0.76259     0.70480     0.60460     0.45063     0.26749     0.12320     0.49557E-01 0.21634E-01 0.12201E-01 0.90739E-02
 0.83105E-02 0.90739E-02 0.12201E-01 0.21634E-01 0.49557E-01 0.12320     0.26749     0.45063     0.60460     0.70480    
 0.76259     0.79211     0.80987     0.80118     0.77311     0.71870     0.62490     0.47885     0.29661     0.14151    
 0.56609E-01 0.23343E-01 0.12066E-01 0.83105E-02 0.73853E-02 0.83105E-02 0.12066E-01 0.23343E-01 0.56609E-01 0.14151    
 0.29661     0.47885     0.62490     0.71870     0.77311     0.80118     0.80118     0.79211     0.76259     0.70480    
 0.60460     0.45063     0.26749     0.12320     0.49557E-01 0.21634E-01 0.12201E-01 0.90739E-02 0.83105E-02 0.90739E-02
 0.12201E-01 0.21634E-01 0.49557E-01 0.12320     0.26749     0.45063     0.60460     0.70480     0.76259     0.79211    
 0.77311     0.76259     0.72783     0.65846     0.53875     0.36749     0.19457     0.83953E-01 0.35746E-01 0.18738E-01
 0.13446E-01 0.12201E-01 0.12066E-01 0.12201E-01 0.13446E-01 0.18738E-01 0.35746E-01 0.83953E-01 0.19457     0.36749    
 0.53875     0.65846     0.72783     0.76259     0.71870     0.70480     0.65846     0.56670     0.41977     0.24632    
 0.11470     0.49864E-01 0.25710E-01 0.18643E-01 0.18738E-01 0.21634E-01 0.23343E-01 0.21634E-01 0.18738E-01 0.18643E-01
 0.25710E-01 0.49864E-01 0.11470     0.24632     0.41977     0.56670     0.65846     0.70480     0.62490     0.60460    
 0.53875     0.41977     0.26500     0.13269     0.60193E-01 0.31527E-01 0.23420E-01 0.25710E-01 0.35746E-01 0.49557E-01
 0.56609E-01 0.49557E-01 0.35746E-01 0.25710E-01 0.23420E-01 0.31527E-01 0.60193E-01 0.13269     0.26500     0.41977    
 0.53875     0.60460     0.47886     0.45063     0.36749     0.24632     0.13269     0.63959E-01 0.34837E-01 0.26838E-01
 0.31527E-01 0.49864E-01 0.83953E-01 0.12320     0.14151     0.12320     0.83953E-01 0.49864E-01 0.31527E-01 0.26838E-01
 0.34837E-01 0.63959E-01 0.13269     0.24632     0.36749     0.45063     0.29661     0.26749     0.19457     0.11470    
 0.60193E-01 0.34837E-01 0.28075E-01 0.34837E-01 0.60193E-01 0.11470     0.19457     0.26749     0.29661     0.26749    
 0.19457     0.11470     0.60193E-01 0.34837E-01 0.28075E-01 0.34837E-01 0.60193E-01 0.11470     0.19457     0.26749    
 0.14151     0.12320     0.83953E-01 0.49864E-01 0.31527E-01 0.26838E-01 0.34837E-01 0.63959E-01 0.13269     0.24632    
 0.36749     0.45063     0.47885     0.45063     0.36749     0.24632     0.13269     0.63959E-01 0.34837E-01 0.26838E-01
 0.31527E-01 0.49864E-01 0.83953E-01 0.12320     0.56609E-01 0.49557E-01 0.35746E-01 0.25710E-01 0.23420E-01 0.31527E-01
 0.60193E-01 0.13269     0.26500     0.41977     0.53875     0.60460     0.62490     0.60460     0.53875     0.41977    
 0.26500     0.13269     0.60193E-01 0.31527E-01 0.23420E-01 0.25710E-01 0.35746E-01 0.49557E-01 0.23343E-01 0.21634E-01
 0.18738E-01 0.18643E-01 0.25710E-01 0.49864E-01 0.11470     0.24632     0.41977     0.56670     0.65846     0.70480    
 0.71870     0.70480     0.65846     0.56670     0.41977     0.24632     0.11470     0.49864E-01 0.25710E-01 0.18643E-01
 0.18738E-01 0.21634E-01 0.12066E-01 0.12201E-01 0.13446E-01 0.18738E-01 0.35746E-01 0.83953E-01 0.19457     0.36749    
 0.53875     0.65846     0.72783     0.76259     0.77311     0.76259     0.72783     0.65846     0.53875     0.36749    
 0.19457     0.83953E-01 0.35746E-01 0.18738E-01 0.13446E-01 0.12201E-01 0.83105E-02 0.90739E-02 0.12201E-01 0.21634E-01
 0.49557E-01 0.12320     0.26749     0.45063     0.60460     0.70480     0.76259     0.79211     0.80118     0.79211    
 0.76259     0.70480     0.60460     0.45063     0.26749     0.12320     0.49557E-01 0.21634E-01 0.12201E-01 0.90739E-02
 0.77986E-02 0.97390E-02 0.18625E-01 0.48447E-01 0.13359     0.30294     0.50695     0.66598     0.76467     0.82176    
 0.85376     0.87001     0.87500     0.87001     0.85376     0.82176     0.76467     0.66598     0.50695     0.30294    
 0.13359     0.48447E-01 0.18625E-01 0.97390E-02 0.81780E-02 0.99079E-02 0.17619E-01 0.42959E-01 0.11678     0.27401    
 0.47942     0.64764     0.75317     0.81388     0.84768     0.86478     0.87001     0.86478     0.84768     0.81388    
 0.75317     0.64764     0.47942     0.27401     0.11678     0.42959E-01 0.17619E-01 0.99079E-02 0.96624E-02 0.10824E-01
 0.15857E-01 0.31952E-01 0.80571E-01 0.20094     0.39680     0.58716     0.71454     0.78768     0.82770     0.84768    
 0.85376     0.84768     0.82770     0.78768     0.71454     0.58716     0.39680     0.20094     0.80571E-01 0.31952E-01
 0.15857E-01 0.10824E-01 0.13754E-01 0.13959E-01 0.15772E-01 0.23456E-01 0.48513E-01 0.11957     0.27159     0.47258    
 0.63545     0.73418     0.78768     0.81388     0.82176     0.81388     0.78768     0.73418     0.63545     0.47258    
 0.27159     0.11957     0.48513E-01 0.23456E-01 0.15772E-01 0.13959E-01 0.24910E-01 0.23148E-01 0.20275E-01 0.20880E-01
 0.30542E-01 0.62765E-01 0.14831     0.31050     0.49747     0.63545     0.71454     0.75317     0.76467     0.75317    
 0.71454     0.63545     0.49747     0.31050     0.14831     0.62765E-01 0.30542E-01 0.20880E-01 0.20275E-01 0.23148E-01
 0.54445E-01 0.48023E-01 0.35318E-01 0.26228E-01 0.25059E-01 0.35587E-01 0.70891E-01 0.15873     0.31050     0.47258    
 0.58716     0.64764     0.66598     0.64764     0.58716     0.47258     0.31050     0.15873     0.70891E-01 0.35587E-01
 0.25059E-01 0.26228E-01 0.35318E-01 0.48023E-01 0.12214     0.10700     0.74425E-01 0.45863E-01 0.30499E-01 0.27444E-01
 0.37402E-01 0.70891E-01 0.14831     0.27159     0.39680     0.47942     0.50695     0.47942     0.39680     0.27159    
 0.14831     0.70891E-01 0.37402E-01 0.27444E-01 0.30499E-01 0.45863E-01 0.74425E-01 0.10700     0.23863     0.21470    
 0.15640     0.94296E-01 0.51992E-01 0.32063E-01 0.27444E-01 0.35587E-01 0.62765E-01 0.11957     0.20094     0.27401    
 0.30294     0.27401     0.20094     0.11957     0.62765E-01 0.35587E-01 0.27444E-01 0.32063E-01 0.51992E-01 0.94296E-01
 0.15640     0.21470     0.37816     0.35249     0.28089     0.18523     0.10171     0.51992E-01 0.30499E-01 0.25059E-01
 0.30542E-01 0.48513E-01 0.80571E-01 0.11678     0.13359     0.11678     0.80571E-01 0.48513E-01 0.30542E-01 0.25059E-01
 0.30499E-01 0.51992E-01 0.10171     0.18523     0.28089     0.35249     0.49953     0.47776     0.41117     0.30445    
 0.18523     0.94296E-01 0.45863E-01 0.26228E-01 0.20880E-01 0.23456E-01 0.31952E-01 0.42959E-01 0.48447E-01 0.42959E-01
 0.31952E-01 0.23456E-01 0.20880E-01 0.26228E-01 0.45863E-01 0.94296E-01 0.18523     0.30445     0.41117     0.47776    
 0.58395     0.56608     0.50974     0.41117     0.28089     0.15640     0.74425E-01 0.35318E-01 0.20275E-01 0.15772E-01
 0.15857E-01 0.17619E-01 0.18625E-01 0.17619E-01 0.15857E-01 0.15772E-01 0.20275E-01 0.35318E-01 0.74425E-01 0.15640    
 0.28089     0.41117     0.50974     0.56608     0.63179     0.61589     0.56608     0.47776     0.35249     0.21470    
 0.10699     0.48023E-01 0.23148E-01 0.13959E-01 0.10824E-01 0.99079E-02 0.97390E-02 0.99079E-02 0.10824E-01 0.13959E-01
 0.23148E-01 0.48023E-01 0.10699     0.21470     0.35249     0.47776     0.56608     0.61589     0.64717     0.63179    
 0.58395     0.49953     0.37816     0.23863     0.12214     0.54445E-01 0.24910E-01 0.13754E-01 0.96624E-02 0.81780E-02
 0.77986E-02 0.81780E-02 0.96624E-02 0.13754E-01 0.24910E-01 0.54445E-01 0.12214     0.23863     0.37816     0.49953    
 0.58395     0.63179     0.63179     0.61589     0.56608     0.47776     0.35249     0.21470     0.10699     0.48023E-01
 0.23148E-01 0.13959E-01 0.10824E-01 0.99079E-02 0.97390E-02 0.99079E-02 0.10824E-01 0.13959E-01 0.23148E-01 0.48023E-01
 0.10699     0.21470     0.35249     0.47776     0.56608     0.61589     0.58395     0.56608     0.50974     0.41117    
 0.28089     0.15640     0.74425E-01 0.35318E-01 0.20275E-01 0.15772E-01 0.15857E-01 0.17619E-01 0.18625E-01 0.17619E-01
 0.15857E-01 0.15772E-01 0.20275E-01 0.35318E-01 0.74425E-01 0.15640     0.28089     0.41117     0.50974     0.56608    
 0.49953     0.47776     0.41117     0.30445     0.18523     0.94296E-01 0.45863E-01 0.26228E-01 0.20880E-01 0.23456E-01
 0.31952E-01 0.42959E-01 0.48447E-01 0.42959E-01 0.31952E-01 0.23456E-01 0.20880E-01 0.26228E-01 0.45863E-01 0.94296E-01
 0.18523     0.30445     0.41117     0.47776     0.37816     0.35249     0.28089     0.18523     0.10171     0.51992E-01
 0.30499E-01 0.25059E-01 0.30542E-01 0.48513E-01 0.80571E-01 0.11678     0.13359     0.11678     0.80571E-01 0.48513E-01
 0.30542E-01 0.25059E-01 0.30499E-01 0.51992E-01 0.10171     0.18523     0.28089     0.35249     0.23863     0.21470    
 0.15640     0.94296E-01 0.51992E-01 0.32063E-01 0.27444E-01 0.35587E-01 0.62765E-01 0.11957     0.20094     0.27401    
 0.30294     0.27401     0.20094     0.11957     0.62765E-01 0.35587E-01 0.27444E-01 0.32063E-01 0.51992E-01 0.94296E-01
 0.15640     0.21470     0.12214     0.10700     0.74425E-01 0.45863E-01 0.30499E-01 0.27444E-01 0.37402E-01 0.70891E-01
 0.14831     0.27159     0.39680     0.47942     0.50695     0.47942     0.39680     0.27159     0.14831     0.70891E-01
 0.37402E-01 0.27444E-01 0.30499E-01 0.45863E-01 0.74425E-01 0.10700     0.54445E-01 0.48023E-01 0.35318E-01 0.26228E-01
 0.25059E-01 0.35587E-01 0.70891E-01 0.15873     0.31050     0.47258     0.58716     0.64764     0.66598     0.64764    
 0.58716     0.47258     0.31050     0.15873     0.70891E-01 0.35587E-01 0.25059E-01 0.26228E-01 0.35318E-01 0.48023E-01
 0.24910E-01 0.23148E-01 0.20275E-01 0.20880E-01 0.30542E-01 0.62765E-01 0.14831     0.31050     0.49747     0.63545    
 0.71454     0.75317     0.76467     0.75317     0.71454     0.63545     0.49747     0.31050     0.14831     0.62765E-01
 0.30542E-01 0.20880E-01 0.20275E-01 0.23148E-01 0.13754E-01 0.13959E-01 0.15772E-01 0.23456E-01 0.48513E-01 0.11957    
 0.27159     0.47258     0.63545     0.73418     0.78768     0.81388     0.82176     0.81388     0.78768     0.73418    
 0.63545     0.47258     0.27159     0.11957     0.48513E-01 0.23456E-01 0.15772E-01 0.13959E-01 0.96624E-02 0.10824E-01
 0.15857E-01 0.31952E-01 0.80571E-01 0.20094     0.39680     0.58716     0.71454     0.78768     0.82770     0.84768    
 0.85376     0.84768     0.82770     0.78768     0.71454     0.58716     0.39680     0.20094     0.80571E-01 0.31952E-01
 0.15857E-01 0.10824E-01 0.81780E-02 0.99079E-02 0.17619E-01 0.42959E-01 0.11678     0.27401     0.47942     0.64764    
 0.75317     0.81388     0.84768     0.86478     0.87001     0.86478     0.84768     0.81388     0.75317     0.64764    
 0.47942     0.27401     0.11678     0.42959E-01 0.17619E-01 0.99079E-02 0.95065E-02 0.13217E-01 0.32368E-01 0.99542E-01
 0.25885     0.47722     0.65693     0.76834     0.83244     0.86859     0.88798     0.89723     0.89993     0.89723    
 0.88798     0.86859     0.83244     0.76834     0.65693     0.47722     0.25885     0.99542E-01 0.32368E-01 0.13217E-01
 0.95083E-02 0.12856E-01 0.29694E-01 0.88465E-01 0.23483     0.45131     0.63940     0.75780     0.82566     0.86383    
 0.88441     0.89432     0.89723     0.89432     0.88441     0.86383     0.82566     0.75780     0.63940     0.45131    
 0.23483     0.88465E-01 0.29694E-01 0.12856E-01 0.97907E-02 0.12282E-01 0.24023E-01 0.63933E-01 0.17419     0.37387    
 0.58156     0.72243     0.80315     0.84809     0.87246     0.88441     0.88798     0.88441     0.87246     0.84809    
 0.80315     0.72243     0.58156     0.37387     0.17419     0.63933E-01 0.24023E-01 0.12282E-01 0.11066E-01 0.12554E-01
 0.19225E-01 0.41060E-01 0.10646     0.25773     0.47184     0.64962     0.75706     0.81624     0.84809     0.86383    
 0.86859     0.86383     0.84809     0.81624     0.75706     0.64962     0.47184     0.25773     0.10646     0.41060E-01
 0.19225E-01 0.12554E-01 0.14716E-01 0.15092E-01 0.17574E-01 0.27229E-01 0.58128E-01 0.14368     0.31527     0.51978    
 0.67043     0.75706     0.80315     0.82566     0.83244     0.82566     0.80315     0.75706     0.67043     0.51978    
 0.31527     0.14368     0.58128E-01 0.27229E-01 0.17574E-01 0.15092E-01 0.23801E-01 0.22542E-01 0.20649E-01 0.22319E-01
 0.33834E-01 0.70550E-01 0.16509     0.33538     0.51978     0.64962     0.72243     0.75780     0.76834     0.75780    
 0.72243     0.64962     0.51978     0.33538     0.16509     0.70550E-01 0.33834E-01 0.22319E-01 0.20649E-01 0.22542E-01
 0.44260E-01 0.40084E-01 0.31522E-01 0.25303E-01 0.25676E-01 0.37601E-01 0.75074E-01 0.16509     0.31526     0.47184    
 0.58156     0.63940     0.65693     0.63940     0.58156     0.47184     0.31526     0.16509     0.75074E-01 0.37601E-01
 0.25676E-01 0.25303E-01 0.31522E-01 0.40084E-01 0.83423E-01 0.74872E-01 0.55899E-01 0.38134E-01 0.27990E-01 0.26914E-01
 0.37601E-01 0.70550E-01 0.14368     0.25773     0.37387     0.45131     0.47722     0.45131     0.37387     0.25773    
 0.14368     0.70550E-01 0.37601E-01 0.26914E-01 0.27990E-01 0.38134E-01 0.55899E-01 0.74872E-01 0.14239     0.12974    
 0.98961E-01 0.65291E-01 0.40604E-01 0.27990E-01 0.25676E-01 0.33834E-01 0.58127E-01 0.10646     0.17419     0.23483    
 0.25885     0.23483     0.17419     0.10646     0.58127E-01 0.33834E-01 0.25676E-01 0.27990E-01 0.40604E-01 0.65291E-01
 0.98961E-01 0.12974     0.21016     0.19576     0.15716     0.10802     0.65291E-01 0.38134E-01 0.25303E-01 0.22319E-01
 0.27229E-01 0.41060E-01 0.63933E-01 0.88465E-01 0.99542E-01 0.88465E-01 0.63933E-01 0.41060E-01 0.27229E-01 0.22319E-01
 0.25303E-01 0.38134E-01 0.65291E-01 0.10802     0.15716     0.19576     0.27037     0.25603     0.21521     0.15716    
 0.98961E-01 0.55899E-01 0.31522E-01 0.20649E-01 0.17574E-01 0.19225E-01 0.24023E-01 0.29694E-01 0.32368E-01 0.29694E-01
 0.24023E-01 0.19225E-01 0.17574E-01 0.20649E-01 0.31522E-01 0.55899E-01 0.98961E-01 0.15716     0.21521     0.25603    
 0.31069     0.29660     0.25603     0.19576     0.12974     0.74872E-01 0.40084E-01 0.22542E-01 0.15092E-01 0.12554E-01
 0.12282E-01 0.12856E-01 0.13217E-01 0.12856E-01 0.12282E-01 0.12554E-01 0.15092E-01 0.22542E-01 0.40084E-01 0.74872E-01
 0.12974     0.19576     0.25603     0.29660     0.32476     0.31069     0.27037     0.21016     0.14239     0.83423E-01
 0.44260E-01 0.23801E-01 0.14716E-01 0.11066E-01 0.97907E-02 0.95082E-02 0.95065E-02 0.95082E-02 0.97907E-02 0.11066E-01
 0.14716E-01 0.23801E-01 0.44260E-01 0.83423E-01 0.14239     0.21016     0.27037     0.31069     0.31069     0.29660    
 0.25603     0.19576     0.12974     0.74872E-01 0.40084E-01 0.22542E-01 0.15092E-01 0.12554E-01 0.12282E-01 0.12856E-01
 0.13217E-01 0.12856E-01 0.12282E-01 0.12554E-01 0.15092E-01 0.22542E-01 0.40084E-01 0.74872E-01 0.12974     0.19576    
 0.25603     0.29660     0.27037     0.25603     0.21521     0.15716     0.98961E-01 0.55899E-01 0.31522E-01 0.20649E-01
 0.17574E-01 0.19225E-01 0.24023E-01 0.29694E-01 0.32368E-01 0.29694E-01 0.24023E-01 0.19225E-01 0.17574E-01 0.20649E-01
 0.31522E-01 0.55899E-01 0.98961E-01 0.15716     0.21521     0.25603     0.21016     0.19576     0.15716     0.10802    
 0.65291E-01 0.38134E-01 0.25303E-01 0.22319E-01 0.27229E-01 0.41060E-01 0.63933E-01 0.88465E-01 0.99542E-01 0.88465E-01
 0.63933E-01 0.41060E-01 0.27229E-01 0.22319E-01 0.25303E-01 0.38134E-01 0.65291E-01 0.10802     0.15716     0.19576    
 0.14239     0.12974     0.98961E-01 0.65291E-01 0.40604E-01 0.27990E-01 0.25676E-01 0.33834E-01 0.58127E-01 0.10646    
 0.17419     0.23483     0.25885     0.23483     0.17419     0.10646     0.58127E-01 0.33834E-01 0.25676E-01 0.27990E-01
 0.40604E-01 0.65291E-01 0.98961E-01 0.12974     0.83423E-01 0.74872E-01 0.55899E-01 0.38134E-01 0.27990E-01 0.26914E-01
 0.37601E-01 0.70550E-01 0.14368     0.25773     0.37387     0.45131     0.47722     0.45131     0.37387     0.25773    
 0.14368     0.70550E-01 0.37601E-01 0.26914E-01 0.27990E-01 0.38134E-01 0.55899E-01 0.74872E-01 0.44260E-01 0.40084E-01
 0.31522E-01 0.25303E-01 0.25676E-01 0.37601E-01 0.75074E-01 0.16509     0.31526     0.47184     0.58156     0.63940    
 0.65693     0.63940     0.58156     0.47184     0.31526     0.16509     0.75074E-01 0.37601E-01 0.25676E-01 0.25303E-01
 0.31522E-01 0.40084E-01 0.23801E-01 0.22542E-01 0.20649E-01 0.22319E-01 0.33834E-01 0.70550E-01 0.16509     0.33538    
 0.51978     0.64962     0.72243     0.75780     0.76834     0.75780     0.72243     0.64962     0.51978     0.33538    
 0.16509     0.70550E-01 0.33834E-01 0.22319E-01 0.20649E-01 0.22542E-01 0.14716E-01 0.15092E-01 0.17574E-01 0.27229E-01
 0.58128E-01 0.14368     0.31527     0.51978     0.67043     0.75706     0.80315     0.82566     0.83244     0.82566    
 0.80315     0.75706     0.67043     0.51978     0.31527     0.14368     0.58128E-01 0.27229E-01 0.17574E-01 0.15092E-01
 0.11066E-01 0.12554E-01 0.19225E-01 0.41060E-01 0.10646     0.25773     0.47184     0.64962     0.75706     0.81624    
 0.84809     0.86383     0.86859     0.86383     0.84809     0.81624     0.75706     0.64962     0.47184     0.25773    
 0.10646     0.41060E-01 0.19225E-01 0.12554E-01 0.97907E-02 0.12282E-01 0.24023E-01 0.63933E-01 0.17419     0.37387    
 0.58156     0.72243     0.80315     0.84809     0.87246     0.88441     0.88798     0.88441     0.87246     0.84809    
 0.80315     0.72243     0.58156     0.37387     0.17419     0.63933E-01 0.24023E-01 0.12282E-01 0.95083E-02 0.12856E-01
 0.29694E-01 0.88465E-01 0.23483     0.45131     0.63940     0.75780     0.82566     0.86383     0.88441     0.89432    
 0.89723     0.89432     0.88441     0.86383     0.82566     0.75780     0.63940     0.45131     0.23483     0.88465E-01
 0.29694E-01 0.12856E-01 0.11720E-01 0.18022E-01 0.53342E-01 0.17269     0.39108     0.60403     0.74262     0.82151    
 0.86502     0.88702     0.89586     0.89775     0.89768     0.89775     0.89586     0.88702     0.86502     0.82151    
 0.74262     0.60403     0.39108     0.17269     0.53342E-01 0.18022E-01 0.11578E-01 0.17352E-01 0.49101E-01 0.15758    
 0.36797     0.58595     0.73178     0.81497     0.86089     0.88450     0.89459     0.89745     0.89775     0.89745    
 0.89459     0.88450     0.86089     0.81497     0.73178     0.58595     0.36797     0.15758     0.49101E-01 0.17352E-01
 0.11351E-01 0.15840E-01 0.39123E-01 0.11968     0.30094     0.52712     0.69533     0.79307     0.84697     0.87555    
 0.88923     0.89459     0.89586     0.89459     0.88923     0.87555     0.84697     0.79307     0.69533     0.52712    
 0.30094     0.11968     0.39123E-01 0.15840E-01 0.11491E-01 0.14502E-01 0.28845E-01 0.77381E-01 0.20606     0.42007    
 0.62094     0.74783     0.81810     0.85601     0.87555     0.88450     0.88702     0.88450     0.87555     0.85601    
 0.81810     0.74783     0.62094     0.42007     0.20606     0.77381E-01 0.28845E-01 0.14502E-01 0.12560E-01 0.14270E-01
 0.21851E-01 0.46270E-01 0.11775     0.27719     0.49200     0.66274     0.76345     0.81810     0.84697     0.86089    
 0.86501     0.86089     0.84697     0.81810     0.76345     0.66274     0.49200     0.27719     0.11775     0.46270E-01
 0.21851E-01 0.14270E-01 0.15428E-01 0.16039E-01 0.19061E-01 0.29468E-01 0.61428E-01 0.14747     0.31625     0.51553    
 0.66274     0.74783     0.79306     0.81497     0.82151     0.81497     0.79306     0.74783     0.66274     0.51553    
 0.31625     0.14747     0.61428E-01 0.29468E-01 0.19061E-01 0.16039E-01 0.21438E-01 0.20961E-01 0.20519E-01 0.23141E-01
 0.34874E-01 0.70207E-01 0.15839     0.31625     0.49200     0.62094     0.69533     0.73178     0.74262     0.73178    
 0.69533     0.62094     0.49200     0.31625     0.15839     0.70207E-01 0.34874E-01 0.23141E-01 0.20519E-01 0.20961E-01
 0.32043E-01 0.30336E-01 0.26583E-01 0.23808E-01 0.25478E-01 0.36868E-01 0.70207E-01 0.14747     0.27719     0.42007    
 0.52712     0.58595     0.60403     0.58595     0.52712     0.42007     0.27719     0.14747     0.70207E-01 0.36868E-01
 0.25478E-01 0.23808E-01 0.26583E-01 0.30336E-01 0.47531E-01 0.44610E-01 0.37566E-01 0.29949E-01 0.25047E-01 0.25478E-01
 0.34874E-01 0.61428E-01 0.11775     0.20606     0.30094     0.36797     0.39108     0.36797     0.30094     0.20606    
 0.11775     0.61428E-01 0.34874E-01 0.25478E-01 0.25047E-01 0.29949E-01 0.37566E-01 0.44610E-01 0.65697E-01 0.61970E-01
 0.52298E-01 0.40324E-01 0.29949E-01 0.23808E-01 0.23141E-01 0.29468E-01 0.46270E-01 0.77380E-01 0.11968     0.15758    
 0.17269     0.15758     0.11968     0.77380E-01 0.46270E-01 0.29468E-01 0.23141E-01 0.23808E-01 0.29949E-01 0.40324E-01
 0.52298E-01 0.61970E-01 0.82479E-01 0.78451E-01 0.67367E-01 0.52298E-01 0.37566E-01 0.26583E-01 0.20519E-01 0.19061E-01
 0.21851E-01 0.28845E-01 0.39123E-01 0.49101E-01 0.53342E-01 0.49101E-01 0.39123E-01 0.28845E-01 0.21851E-01 0.19061E-01
 0.20519E-01 0.26583E-01 0.37566E-01 0.52298E-01 0.67367E-01 0.78451E-01 0.94079E-01 0.89984E-01 0.78451E-01 0.61970E-01
 0.44610E-01 0.30336E-01 0.20961E-01 0.16039E-01 0.14270E-01 0.14502E-01 0.15840E-01 0.17352E-01 0.18022E-01 0.17352E-01
 0.15840E-01 0.14502E-01 0.14270E-01 0.16039E-01 0.20961E-01 0.30336E-01 0.44610E-01 0.61970E-01 0.78451E-01 0.89984E-01
 0.98192E-01 0.94079E-01 0.82479E-01 0.65697E-01 0.47531E-01 0.32043E-01 0.21438E-01 0.15428E-01 0.12560E-01 0.11491E-01
 0.11351E-01 0.11578E-01 0.11720E-01 0.11578E-01 0.11351E-01 0.11491E-01 0.12560E-01 0.15428E-01 0.21438E-01 0.32043E-01
 0.47531E-01 0.65697E-01 0.82479E-01 0.94079E-01 0.94079E-01 0.89984E-01 0.78451E-01 0.61970E-01 0.44610E-01 0.30336E-01
 0.20961E-01 0.16039E-01 0.14270E-01 0.14502E-01 0.15840E-01 0.17352E-01 0.18022E-01 0.17352E-01 0.15840E-01 0.14502E-01
 0.14270E-01 0.16039E-01 0.20961E-01 0.30336E-01 0.44610E-01 0.61970E-01 0.78451E-01 0.89984E-01 0.82479E-01 0.78451E-01
 0.67367E-01 0.52298E-01 0.37566E-01 0.26583E-01 0.20519E-01 0.19061E-01 0.21851E-01 0.28845E-01 0.39123E-01 0.49101E-01
 0.53342E-01 0.49101E-01 0.39123E-01 0.28845E-01 0.21851E-01 0.19061E-01 0.20519E-01 0.26583E-01 0.37566E-01 0.52298E-01
 0.67367E-01 0.78451E-01 0.65697E-01 0.61970E-01 0.52298E-01 0.40324E-01 0.29949E-01 0.23808E-01 0.23141E-01 0.29468E-01
 0.46270E-01 0.77380E-01 0.11968     0.15758     0.17269     0.15758     0.11968     0.77380E-01 0.46270E-01 0.29468E-01
 0.23141E-01 0.23808E-01 0.29949E-01 0.40324E-01 0.52298E-01 0.61970E-01 0.47531E-01 0.44610E-01 0.37566E-01 0.29949E-01
 0.25047E-01 0.25478E-01 0.34874E-01 0.61428E-01 0.11775     0.20606     0.30094     0.36797     0.39108     0.36797    
 0.30094     0.20606     0.11775     0.61428E-01 0.34874E-01 0.25478E-01 0.25047E-01 0.29949E-01 0.37566E-01 0.44610E-01
 0.32043E-01 0.30336E-01 0.26583E-01 0.23808E-01 0.25478E-01 0.36868E-01 0.70207E-01 0.14747     0.27719     0.42007    
 0.52712     0.58595     0.60403     0.58595     0.52712     0.42007     0.27719     0.14747     0.70207E-01 0.36868E-01
 0.25478E-01 0.23808E-01 0.26583E-01 0.30336E-01 0.21438E-01 0.20961E-01 0.20519E-01 0.23141E-01 0.34874E-01 0.70207E-01
 0.15839     0.31625     0.49200     0.62094     0.69533     0.73178     0.74262     0.73178     0.69533     0.62094    
 0.49200     0.31625     0.15839     0.70207E-01 0.34874E-01 0.23141E-01 0.20519E-01 0.20961E-01 0.15428E-01 0.16039E-01
 0.19061E-01 0.29468E-01 0.61428E-01 0.14747     0.31625     0.51553     0.66274     0.74783     0.79306     0.81497    
 0.82151     0.81497     0.79306     0.74783     0.66274     0.51553     0.31625     0.14747     0.61428E-01 0.29468E-01
 0.19061E-01 0.16039E-01 0.12560E-01 0.14270E-01 0.21851E-01 0.46270E-01 0.11775     0.27719     0.49200     0.66274    
 0.76345     0.81810     0.84697     0.86089     0.86501     0.86089     0.84697     0.81810     0.76345     0.66274    
 0.49200     0.27719     0.11775     0.46270E-01 0.21851E-01 0.14270E-01 0.11491E-01 0.14502E-01 0.28845E-01 0.77381E-01
 0.20606     0.42007     0.62094     0.74783     0.81810     0.85601     0.87555     0.88450     0.88702     0.88450    
 0.87555     0.85601     0.81810     0.74783     0.62094     0.42007     0.20606     0.77381E-01 0.28845E-01 0.14502E-01
 0.11351E-01 0.15840E-01 0.39123E-01 0.11968     0.30094     0.52712     0.69533     0.79307     0.84697     0.87555    
 0.88923     0.89459     0.89586     0.89459     0.88923     0.87555     0.84697     0.79307     0.69533     0.52712    
 0.30094     0.11968     0.39123E-01 0.15840E-01 0.11578E-01 0.17352E-01 0.49101E-01 0.15758     0.36797     0.58595    
 0.73178     0.81497     0.86089     0.88450     0.89459     0.89745     0.89775     0.89745     0.89459     0.88450    
 0.86089     0.81497     0.73178     0.58595     0.36797     0.15758     0.49101E-01 0.17352E-01 0.14639E-01 0.23994E-01
 0.78064E-01 0.24688     0.49307     0.68219     0.79086     0.84941     0.87767     0.88524     0.87780     0.86359    
 0.85617     0.86359     0.87780     0.88524     0.87767     0.84941     0.79086     0.68219     0.49307     0.24688    
 0.78064E-01 0.23994E-01 0.14456E-01 0.23169E-01 0.72849E-01 0.23067     0.47356     0.66913     0.78330     0.84504    
 0.87551     0.88524     0.88060     0.86950     0.86359     0.86950     0.88060     0.88524     0.87551     0.84504    
 0.78330     0.66913     0.47356     0.23067     0.72849E-01 0.23169E-01 0.14033E-01 0.21084E-01 0.59554E-01 0.18634    
 0.41344     0.62604     0.75806     0.83021     0.86739     0.88300     0.88498     0.88060     0.87780     0.88060    
 0.88498     0.88300     0.86739     0.83021     0.75806     0.62604     0.41344     0.18634     0.59554E-01 0.21084E-01
 0.13679E-01 0.18665E-01 0.43895E-01 0.12857     0.31493     0.54214     0.70637     0.79920     0.84866     0.87316    
 0.88300     0.88524     0.88523     0.88524     0.88300     0.87316     0.84866     0.79920     0.70637     0.54214    
 0.31493     0.12857     0.43895E-01 0.18665E-01 0.13817E-01 0.16932E-01 0.31265E-01 0.77877E-01 0.20024     0.40906    
 0.61129     0.74032     0.81113     0.84866     0.86739     0.87551     0.87767     0.87551     0.86739     0.84866    
 0.81113     0.74032     0.61129     0.40906     0.20024     0.77877E-01 0.31265E-01 0.16932E-01 0.14999E-01 0.16693E-01
 0.23860E-01 0.45789E-01 0.10816     0.25039     0.45635     0.63259     0.74032     0.79920     0.83021     0.84504    
 0.84941     0.84504     0.83021     0.79920     0.74032     0.63259     0.45635     0.25039     0.10816     0.45789E-01
 0.23860E-01 0.16693E-01 0.17770E-01 0.18432E-01 0.21273E-01 0.30224E-01 0.56433E-01 0.12568     0.26819     0.45635    
 0.61129     0.70637     0.75806     0.78330     0.79086     0.78330     0.75806     0.70637     0.61129     0.45635    
 0.26819     0.12568     0.56433E-01 0.30224E-01 0.21273E-01 0.18432E-01 0.22367E-01 0.22235E-01 0.22359E-01 0.24722E-01
 0.33918E-01 0.60403E-01 0.12568     0.25039     0.40906     0.54214     0.62604     0.66913     0.68219     0.66913    
 0.62604     0.54214     0.40906     0.25039     0.12568     0.60403E-01 0.33918E-01 0.24722E-01 0.22359E-01 0.22235E-01
 0.28432E-01 0.27679E-01 0.25970E-01 0.24673E-01 0.26011E-01 0.33918E-01 0.56433E-01 0.10816     0.20024     0.31493    
 0.41344     0.47356     0.49307     0.47356     0.41344     0.31493     0.20024     0.10816     0.56433E-01 0.33918E-01
 0.26011E-01 0.24673E-01 0.25970E-01 0.27679E-01 0.34984E-01 0.33820E-01 0.30878E-01 0.27352E-01 0.24673E-01 0.24722E-01
 0.30224E-01 0.45789E-01 0.77877E-01 0.12857     0.18634     0.23067     0.24688     0.23067     0.18634     0.12857    
 0.77877E-01 0.45789E-01 0.30224E-01 0.24722E-01 0.24673E-01 0.27352E-01 0.30878E-01 0.33820E-01 0.40759E-01 0.39409E-01
 0.35776E-01 0.30878E-01 0.25970E-01 0.22359E-01 0.21273E-01 0.23860E-01 0.31265E-01 0.43894E-01 0.59554E-01 0.72849E-01
 0.78064E-01 0.72849E-01 0.59554E-01 0.43894E-01 0.31265E-01 0.23860E-01 0.21273E-01 0.22359E-01 0.25970E-01 0.30878E-01
 0.35776E-01 0.39409E-01 0.44673E-01 0.43288E-01 0.39409E-01 0.33820E-01 0.27679E-01 0.22235E-01 0.18432E-01 0.16693E-01
 0.16932E-01 0.18665E-01 0.21084E-01 0.23169E-01 0.23994E-01 0.23169E-01 0.21084E-01 0.18665E-01 0.16932E-01 0.16693E-01
 0.18432E-01 0.22235E-01 0.27679E-01 0.33820E-01 0.39409E-01 0.43288E-01 0.46054E-01 0.44673E-01 0.40759E-01 0.34984E-01
 0.28432E-01 0.22367E-01 0.17770E-01 0.14999E-01 0.13817E-01 0.13679E-01 0.14033E-01 0.14456E-01 0.14639E-01 0.14456E-01
 0.14033E-01 0.13679E-01 0.13817E-01 0.14999E-01 0.17770E-01 0.22367E-01 0.28432E-01 0.34984E-01 0.40759E-01 0.44673E-01
 0.44673E-01 0.43288E-01 0.39409E-01 0.33820E-01 0.27679E-01 0.22235E-01 0.18432E-01 0.16693E-01 0.16932E-01 0.18665E-01
 0.21084E-01 0.23169E-01 0.23994E-01 0.23169E-01 0.21084E-01 0.18665E-01 0.16932E-01 0.16693E-01 0.18432E-01 0.22235E-01
 0.27679E-01 0.33820E-01 0.39409E-01 0.43288E-01 0.40759E-01 0.39409E-01 0.35776E-01 0.30878E-01 0.25970E-01 0.22359E-01
 0.21273E-01 0.23860E-01 0.31265E-01 0.43894E-01 0.59554E-01 0.72849E-01 0.78064E-01 0.72849E-01 0.59554E-01 0.43894E-01
 0.31265E-01 0.23860E-01 0.21273E-01 0.22359E-01 0.25970E-01 0.30878E-01 0.35776E-01 0.39409E-01 0.34984E-01 0.33820E-01
 0.30878E-01 0.27352E-01 0.24673E-01 0.24722E-01 0.30224E-01 0.45789E-01 0.77877E-01 0.12857     0.18634     0.23067    
 0.24688     0.23067     0.18634     0.12857     0.77877E-01 0.45789E-01 0.30224E-01 0.24722E-01 0.24673E-01 0.27352E-01
 0.30878E-01 0.33820E-01 0.28432E-01 0.27679E-01 0.25970E-01 0.24673E-01 0.26011E-01 0.33918E-01 0.56433E-01 0.10816    
 0.20024     0.31493     0.41344     0.47356     0.49307     0.47356     0.41344     0.31493     0.20024     0.10816    
 0.56433E-01 0.33918E-01 0.26011E-01 0.24673E-01 0.25970E-01 0.27679E-01 0.22367E-01 0.22235E-01 0.22359E-01 0.24722E-01
 0.33918E-01 0.60403E-01 0.12568     0.25039     0.40906     0.54214     0.62604     0.66913     0.68219     0.66913    
 0.62604     0.54214     0.40906     0.25039     0.12568     0.60403E-01 0.33918E-01 0.24722E-01 0.22359E-01 0.22235E-01
 0.17770E-01 0.18432E-01 0.21273E-01 0.30224E-01 0.56433E-01 0.12568     0.26819     0.45635     0.61129     0.70637    
 0.75806     0.78330     0.79086     0.78330     0.75806     0.70637     0.61129     0.45635     0.26819     0.12568    
 0.56433E-01 0.30224E-01 0.21273E-01 0.18432E-01 0.14999E-01 0.16693E-01 0.23860E-01 0.45789E-01 0.10816     0.25039    
 0.45635     0.63259     0.74032     0.79920     0.83021     0.84504     0.84941     0.84504     0.83021     0.79920    
 0.74032     0.63259     0.45635     0.25039     0.10816     0.45789E-01 0.23860E-01 0.16693E-01 0.13817E-01 0.16932E-01
 0.31265E-01 0.77877E-01 0.20024     0.40906     0.61129     0.74032     0.81113     0.84866     0.86739     0.87551    
 0.87767     0.87551     0.86739     0.84866     0.81113     0.74032     0.61129     0.40906     0.20024     0.77877E-01
 0.31265E-01 0.16932E-01 0.13679E-01 0.18665E-01 0.43895E-01 0.12857     0.31493     0.54214     0.70637     0.79920    
 0.84866     0.87316     0.88300     0.88524     0.88523     0.88524     0.88300     0.87316     0.84866     0.79920    
 0.70637     0.54214     0.31493     0.12857     0.43895E-01 0.18665E-01 0.14033E-01 0.21084E-01 0.59554E-01 0.18634    
 0.41344     0.62604     0.75806     0.83021     0.86739     0.88300     0.88498     0.88060     0.87780     0.88060    
 0.88498     0.88300     0.86739     0.83021     0.75806     0.62604     0.41344     0.18634     0.59554E-01 0.21084E-01
 0.14456E-01 0.23169E-01 0.72849E-01 0.23067     0.47356     0.66913     0.78330     0.84504     0.87551     0.88524    
 0.88060     0.86950     0.86359     0.86950     0.88060     0.88524     0.87551     0.84504     0.78330     0.66913    
 0.47356     0.23067     0.72849E-01 0.23169E-01 0.17481E-01 0.29654E-01 0.10010     0.30460     0.55901     0.72785    
 0.81812     0.86283     0.87723     0.86445     0.82173     0.76008     0.72756     0.76008     0.82173     0.86445    
 0.87723     0.86283     0.81812     0.72785     0.55901     0.30460     0.10010     0.29654E-01 0.17409E-01 0.28888E-01
 0.94480E-01 0.28819     0.54179     0.71726     0.81227     0.85993     0.87704     0.86861     0.83453     0.78562    
 0.76008     0.78562     0.83453     0.86861     0.87704     0.85993     0.81227     0.71726     0.54179     0.28819    
 0.94480E-01 0.28888E-01 0.17202E-01 0.26768E-01 0.79294E-01 0.24129     0.48770     0.68243     0.79274     0.84958    
 0.87420     0.87597     0.85953     0.83453     0.82173     0.83453     0.85953     0.87597     0.87420     0.84958    
 0.79274     0.68243     0.48770     0.24129     0.79294E-01 0.26768E-01 0.17010E-01 0.23989E-01 0.59767E-01 0.17460    
 0.39293     0.61312     0.75252     0.82668     0.86316     0.87682     0.87597     0.86861     0.86444     0.86861    
 0.87597     0.87682     0.86316     0.82668     0.75252     0.61312     0.39293     0.17460     0.59767E-01 0.23989E-01
 0.17397E-01 0.21869E-01 0.42842E-01 0.10983     0.26849     0.49420     0.67644     0.78139     0.83624     0.86316    
 0.87420     0.87704     0.87723     0.87704     0.87420     0.86316     0.83624     0.78139     0.67644     0.49420    
 0.26849     0.10983     0.42842E-01 0.21869E-01 0.19295E-01 0.21791E-01 0.32608E-01 0.65557E-01 0.15403     0.33076    
 0.54211     0.69532     0.78139     0.82668     0.84958     0.85993     0.86283     0.85993     0.84958     0.82668    
 0.78139     0.69532     0.54211     0.33076     0.15403     0.65557E-01 0.32608E-01 0.21791E-01 0.23532E-01 0.24554E-01
 0.29045E-01 0.43046E-01 0.82551E-01 0.17928     0.35216     0.54211     0.67644     0.75252     0.79274     0.81227    
 0.81812     0.81227     0.79274     0.75252     0.67644     0.54211     0.35216     0.17928     0.82551E-01 0.43046E-01
 0.29045E-01 0.24554E-01 0.30383E-01 0.30261E-01 0.30663E-01 0.34675E-01 0.49213E-01 0.88928E-01 0.17928     0.33076    
 0.49420     0.61312     0.68243     0.71726     0.72785     0.71726     0.68243     0.61312     0.49420     0.33076    
 0.17928     0.88928E-01 0.49213E-01 0.34675E-01 0.30663E-01 0.30261E-01 0.39322E-01 0.38302E-01 0.35937E-01 0.34261E-01
 0.36773E-01 0.49213E-01 0.82551E-01 0.15403     0.26849     0.39293     0.48769     0.54179     0.55901     0.54179    
 0.48769     0.39293     0.26849     0.15403     0.82551E-01 0.49213E-01 0.36773E-01 0.34261E-01 0.35937E-01 0.38302E-01
 0.48933E-01 0.47301E-01 0.43111E-01 0.38020E-01 0.34261E-01 0.34675E-01 0.43046E-01 0.65557E-01 0.10983     0.17460    
 0.24129     0.28819     0.30460     0.28819     0.24129     0.17460     0.10983     0.65557E-01 0.43046E-01 0.34675E-01
 0.34261E-01 0.38020E-01 0.43111E-01 0.47301E-01 0.57264E-01 0.55366E-01 0.50199E-01 0.43111E-01 0.35937E-01 0.30663E-01
 0.29045E-01 0.32608E-01 0.42842E-01 0.59767E-01 0.79294E-01 0.94480E-01 0.10010     0.94480E-01 0.79294E-01 0.59767E-01
 0.42842E-01 0.32608E-01 0.29045E-01 0.30663E-01 0.35937E-01 0.43111E-01 0.50199E-01 0.55366E-01 0.62735E-01 0.60824E-01
 0.55366E-01 0.47301E-01 0.38302E-01 0.30261E-01 0.24554E-01 0.21791E-01 0.21869E-01 0.23989E-01 0.26768E-01 0.28888E-01
 0.29654E-01 0.28888E-01 0.26768E-01 0.23989E-01 0.21869E-01 0.21791E-01 0.24554E-01 0.30261E-01 0.38302E-01 0.47301E-01
 0.55366E-01 0.60824E-01 0.64614E-01 0.62735E-01 0.57264E-01 0.48933E-01 0.39322E-01 0.30383E-01 0.23532E-01 0.19295E-01
 0.17397E-01 0.17010E-01 0.17202E-01 0.17409E-01 0.17481E-01 0.17409E-01 0.17202E-01 0.17010E-01 0.17397E-01 0.19295E-01
 0.23532E-01 0.30383E-01 0.39322E-01 0.48933E-01 0.57264E-01 0.62735E-01 0.62735E-01 0.60824E-01 0.55366E-01 0.47301E-01
 0.38302E-01 0.30261E-01 0.24554E-01 0.21791E-01 0.21869E-01 0.23989E-01 0.26768E-01 0.28888E-01 0.29654E-01 0.28888E-01
 0.26768E-01 0.23989E-01 0.21869E-01 0.21791E-01 0.24554E-01 0.30261E-01 0.38302E-01 0.47301E-01 0.55366E-01 0.60824E-01
 0.57264E-01 0.55366E-01 0.50199E-01 0.43111E-01 0.35937E-01 0.30663E-01 0.29045E-01 0.32608E-01 0.42842E-01 0.59767E-01
 0.79294E-01 0.94480E-01 0.10010     0.94480E-01 0.79294E-01 0.59767E-01 0.42842E-01 0.32608E-01 0.29045E-01 0.30663E-01
 0.35937E-01 0.43111E-01 0.50199E-01 0.55366E-01 0.48933E-01 0.47301E-01 0.43111E-01 0.38020E-01 0.34261E-01 0.34675E-01
 0.43046E-01 0.65557E-01 0.10983     0.17460     0.24129     0.28819     0.30460     0.28819     0.24129     0.17460    
 0.10983     0.65557E-01 0.43046E-01 0.34675E-01 0.34261E-01 0.38020E-01 0.43111E-01 0.47301E-01 0.39322E-01 0.38302E-01
 0.35937E-01 0.34261E-01 0.36773E-01 0.49213E-01 0.82551E-01 0.15403     0.26849     0.39293     0.48769     0.54179    
 0.55901     0.54179     0.48769     0.39293     0.26849     0.15403     0.82551E-01 0.49213E-01 0.36773E-01 0.34261E-01
 0.35937E-01 0.38302E-01 0.30383E-01 0.30261E-01 0.30663E-01 0.34675E-01 0.49213E-01 0.88928E-01 0.17928     0.33076    
 0.49420     0.61312     0.68243     0.71726     0.72785     0.71726     0.68243     0.61312     0.49420     0.33076    
 0.17928     0.88928E-01 0.49213E-01 0.34675E-01 0.30663E-01 0.30261E-01 0.23532E-01 0.24554E-01 0.29045E-01 0.43046E-01
 0.82551E-01 0.17928     0.35216     0.54211     0.67644     0.75252     0.79274     0.81227     0.81812     0.81227    
 0.79274     0.75252     0.67644     0.54211     0.35216     0.17928     0.82551E-01 0.43046E-01 0.29045E-01 0.24554E-01
 0.19295E-01 0.21791E-01 0.32608E-01 0.65557E-01 0.15403     0.33076     0.54211     0.69532     0.78139     0.82668    
 0.84958     0.85993     0.86283     0.85993     0.84958     0.82668     0.78139     0.69532     0.54211     0.33076    
 0.15403     0.65557E-01 0.32608E-01 0.21791E-01 0.17397E-01 0.21869E-01 0.42842E-01 0.10983     0.26849     0.49420    
 0.67644     0.78139     0.83624     0.86316     0.87420     0.87704     0.87723     0.87704     0.87420     0.86316    
 0.83624     0.78139     0.67644     0.49420     0.26849     0.10983     0.42842E-01 0.21869E-01 0.17010E-01 0.23989E-01
 0.59767E-01 0.17460     0.39293     0.61312     0.75252     0.82668     0.86316     0.87682     0.87597     0.86861    
 0.86444     0.86861     0.87597     0.87682     0.86316     0.82668     0.75252     0.61312     0.39293     0.17460    
 0.59767E-01 0.23989E-01 0.17202E-01 0.26768E-01 0.79294E-01 0.24129     0.48770     0.68243     0.79274     0.84958    
 0.87420     0.87597     0.85953     0.83453     0.82173     0.83453     0.85953     0.87597     0.87420     0.84958    
 0.79274     0.68243     0.48770     0.24129     0.79294E-01 0.26768E-01 0.17409E-01 0.28888E-01 0.94480E-01 0.28819    
 0.54179     0.71726     0.81227     0.85993     0.87704     0.86861     0.83453     0.78562     0.76008     0.78562    
 0.83453     0.86861     0.87704     0.85993     0.81227     0.71726     0.54179     0.28819     0.94480E-01 0.28888E-01
 0.20589E-01 0.34987E-01 0.11628     0.33991     0.59548     0.75262     0.83259     0.86792     0.86949     0.82898    
 0.72018     0.55605     0.47154     0.55605     0.72018     0.82898     0.86949     0.86792     0.83259     0.75262    
 0.59548     0.33991     0.11628     0.34987E-01 0.20608E-01 0.34188E-01 0.10986     0.32230     0.57897     0.74325    
 0.82777     0.86615     0.87146     0.83966     0.75340     0.62429     0.55605     0.62429     0.75340     0.83966    
 0.87146     0.86615     0.82777     0.74325     0.57897     0.32230     0.10986     0.34188E-01 0.20690E-01 0.32000E-01
 0.92479E-01 0.27113     0.52564     0.71178     0.81130     0.85899     0.87386     0.86052     0.81655     0.75340    
 0.72018     0.75340     0.81655     0.86052     0.87386     0.85899     0.81130     0.71178     0.52564     0.27113    
 0.92479E-01 0.32000E-01 0.21255E-01 0.29521E-01 0.70712E-01 0.19785     0.42881     0.64684     0.77607     0.84099    
 0.86918     0.87357     0.86052     0.83966     0.82898     0.83966     0.86052     0.87357     0.86918     0.84099    
 0.77607     0.64684     0.42881     0.19785     0.70712E-01 0.29521E-01 0.23493E-01 0.28781E-01 0.53088E-01 0.12777    
 0.29848     0.53063     0.70660     0.80225     0.84916     0.86918     0.87386     0.87146     0.86949     0.87146    
 0.87386     0.86918     0.84916     0.80225     0.70660     0.53063     0.29848     0.12777     0.53088E-01 0.28781E-01
 0.29259E-01 0.31913E-01 0.44019E-01 0.80919E-01 0.17729     0.36432     0.57811     0.72432     0.80225     0.84099    
 0.85899     0.86615     0.86792     0.86615     0.85899     0.84099     0.80225     0.72432     0.57811     0.36432    
 0.17729     0.80919E-01 0.44019E-01 0.31913E-01 0.41077E-01 0.41204E-01 0.44196E-01 0.58356E-01 0.10118     0.20521    
 0.38683     0.57811     0.70660     0.77607     0.81130     0.82777     0.83259     0.82777     0.81130     0.77607    
 0.70660     0.57811     0.38683     0.20521     0.10118     0.58356E-01 0.44196E-01 0.41204E-01 0.61853E-01 0.59314E-01
 0.54209E-01 0.53470E-01 0.66525E-01 0.10860     0.20521     0.36432     0.53063     0.64684     0.71178     0.74325    
 0.75262     0.74325     0.71178     0.64684     0.53063     0.36432     0.20521     0.10860     0.66525E-01 0.53470E-01
 0.54209E-01 0.59314E-01 0.92453E-01 0.87299E-01 0.74691E-01 0.61864E-01 0.56851E-01 0.66525E-01 0.10118     0.17729    
 0.29848     0.42881     0.52564     0.57897     0.59548     0.57897     0.52564     0.42881     0.29848     0.17729    
 0.10118     0.66525E-01 0.56851E-01 0.61864E-01 0.74691E-01 0.87299E-01 0.12801     0.12105     0.10289     0.80379E-01
 0.61864E-01 0.53470E-01 0.58356E-01 0.80919E-01 0.12777     0.19785     0.27113     0.32230     0.33990     0.32230    
 0.27113     0.19785     0.12777     0.80919E-01 0.58356E-01 0.53470E-01 0.61864E-01 0.80379E-01 0.10289     0.12105    
 0.15943     0.15195     0.13134     0.10289     0.74691E-01 0.54209E-01 0.44196E-01 0.44019E-01 0.53088E-01 0.70712E-01
 0.92479E-01 0.10986     0.11627     0.10986     0.92479E-01 0.70712E-01 0.53088E-01 0.44019E-01 0.44196E-01 0.54209E-01
 0.74691E-01 0.10289     0.13134     0.15195     0.17984     0.17267     0.15195     0.12105     0.87299E-01 0.59314E-01
 0.41204E-01 0.31913E-01 0.28781E-01 0.29521E-01 0.32000E-01 0.34188E-01 0.34987E-01 0.34188E-01 0.32000E-01 0.29521E-01
 0.28781E-01 0.31913E-01 0.41204E-01 0.59314E-01 0.87299E-01 0.12105     0.15195     0.17267     0.18677     0.17984    
 0.15943     0.12801     0.92453E-01 0.61853E-01 0.41077E-01 0.29259E-01 0.23493E-01 0.21255E-01 0.20690E-01 0.20608E-01
 0.20589E-01 0.20608E-01 0.20690E-01 0.21255E-01 0.23493E-01 0.29259E-01 0.41077E-01 0.61853E-01 0.92453E-01 0.12801    
 0.15943     0.17984     0.17984     0.17267     0.15195     0.12105     0.87299E-01 0.59314E-01 0.41204E-01 0.31913E-01
 0.28781E-01 0.29521E-01 0.32000E-01 0.34188E-01 0.34987E-01 0.34188E-01 0.32000E-01 0.29521E-01 0.28781E-01 0.31913E-01
 0.41204E-01 0.59314E-01 0.87299E-01 0.12105     0.15195     0.17267     0.15943     0.15195     0.13134     0.10289    
 0.74691E-01 0.54209E-01 0.44196E-01 0.44019E-01 0.53088E-01 0.70712E-01 0.92479E-01 0.10986     0.11627     0.10986    
 0.92479E-01 0.70712E-01 0.53088E-01 0.44019E-01 0.44196E-01 0.54209E-01 0.74691E-01 0.10289     0.13134     0.15195    
 0.12801     0.12105     0.10289     0.80379E-01 0.61864E-01 0.53470E-01 0.58356E-01 0.80919E-01 0.12777     0.19785    
 0.27113     0.32230     0.33990     0.32230     0.27113     0.19785     0.12777     0.80919E-01 0.58356E-01 0.53470E-01
 0.61864E-01 0.80379E-01 0.10289     0.12105     0.92453E-01 0.87299E-01 0.74691E-01 0.61864E-01 0.56851E-01 0.66525E-01
 0.10118     0.17729     0.29848     0.42881     0.52564     0.57897     0.59548     0.57897     0.52564     0.42881    
 0.29848     0.17729     0.10118     0.66525E-01 0.56851E-01 0.61864E-01 0.74691E-01 0.87299E-01 0.61853E-01 0.59314E-01
 0.54209E-01 0.53470E-01 0.66525E-01 0.10860     0.20521     0.36432     0.53063     0.64684     0.71178     0.74325    
 0.75262     0.74325     0.71178     0.64684     0.53063     0.36432     0.20521     0.10860     0.66525E-01 0.53470E-01
 0.54209E-01 0.59314E-01 0.41077E-01 0.41204E-01 0.44196E-01 0.58356E-01 0.10118     0.20521     0.38683     0.57811    
 0.70660     0.77607     0.81130     0.82777     0.83259     0.82777     0.81130     0.77607     0.70660     0.57811    
 0.38683     0.20521     0.10118     0.58356E-01 0.44196E-01 0.41204E-01 0.29259E-01 0.31913E-01 0.44019E-01 0.80919E-01
 0.17729     0.36432     0.57811     0.72432     0.80225     0.84099     0.85899     0.86615     0.86792     0.86615    
 0.85899     0.84099     0.80225     0.72432     0.57811     0.36432     0.17729     0.80919E-01 0.44019E-01 0.31913E-01
 0.23493E-01 0.28781E-01 0.53088E-01 0.12777     0.29848     0.53063     0.70660     0.80225     0.84916     0.86918    
 0.87386     0.87146     0.86949     0.87146     0.87386     0.86918     0.84916     0.80225     0.70660     0.53063    
 0.29848     0.12777     0.53088E-01 0.28781E-01 0.21255E-01 0.29521E-01 0.70712E-01 0.19785     0.42881     0.64684    
 0.77607     0.84099     0.86918     0.87357     0.86052     0.83966     0.82898     0.83966     0.86052     0.87357    
 0.86918     0.84099     0.77607     0.64684     0.42881     0.19785     0.70712E-01 0.29521E-01 0.20690E-01 0.32000E-01
 0.92479E-01 0.27113     0.52564     0.71178     0.81130     0.85899     0.87386     0.86052     0.81655     0.75340    
 0.72018     0.75340     0.81655     0.86052     0.87386     0.85899     0.81130     0.71178     0.52564     0.27113    
 0.92479E-01 0.32000E-01 0.20608E-01 0.34188E-01 0.10986     0.32230     0.57897     0.74325     0.82777     0.86615    
 0.87146     0.83966     0.75340     0.62429     0.55605     0.62429     0.75340     0.83966     0.87146     0.86615    
 0.82777     0.74325     0.57897     0.32230     0.10986     0.34188E-01 0.23237E-01 0.38526E-01 0.12217     0.34894    
 0.60664     0.76207     0.83867     0.86936     0.86255     0.79889     0.62561     0.37561     0.26640     0.37561    
 0.62561     0.79889     0.86255     0.86936     0.83867     0.76207     0.60664     0.34894     0.12217     0.38526E-01
 0.23397E-01 0.37736E-01 0.11495     0.32920     0.58918     0.75296     0.83435     0.86829     0.86614     0.81551    
 0.67915     0.47503     0.37561     0.47503     0.67915     0.81551     0.86614     0.86829     0.83435     0.75296    
 0.58918     0.32920     0.11495     0.37736E-01 0.24109E-01 0.35914E-01 0.96361E-01 0.27286     0.53155     0.72113    
 0.81896     0.86290     0.87222     0.84792     0.77973     0.67915     0.62561     0.67915     0.77973     0.84792    
 0.87222     0.86290     0.81896     0.72113     0.53155     0.27286     0.96361E-01 0.35914E-01 0.26427E-01 0.34952E-01
 0.75361E-01 0.19686     0.42687     0.65253     0.78414     0.84703     0.87144     0.87012     0.84792     0.81551    
 0.79889     0.81551     0.84792     0.87012     0.87144     0.84703     0.78414     0.65253     0.42687     0.19686    
 0.75361E-01 0.34952E-01 0.32695E-01 0.37802E-01 0.60961E-01 0.13016     0.29239     0.52812     0.71221     0.80968    
 0.85469     0.87144     0.87222     0.86614     0.86255     0.86614     0.87222     0.87144     0.85469     0.80968    
 0.71221     0.52812     0.29239     0.13016     0.60961E-01 0.37802E-01 0.47535E-01 0.48747E-01 0.57709E-01 0.89661E-01
 0.17641     0.35570     0.57611     0.73008     0.80968     0.84703     0.86290     0.86829     0.86936     0.86829    
 0.86290     0.84703     0.80968     0.73008     0.57611     0.35570     0.17641     0.89661E-01 0.57709E-01 0.48747E-01
 0.79873E-01 0.75677E-01 0.69700E-01 0.75510E-01 0.10971     0.20217     0.37763     0.57611     0.71221     0.78414    
 0.81896     0.83435     0.83867     0.83435     0.81896     0.78414     0.71221     0.57611     0.37763     0.20217    
 0.10971     0.75510E-01 0.69700E-01 0.75677E-01 0.14005     0.12897     0.10446     0.85310E-01 0.85525E-01 0.11694    
 0.20217     0.35570     0.52812     0.65253     0.72113     0.75296     0.76207     0.75296     0.72113     0.65253    
 0.52812     0.35570     0.20217     0.11694     0.85525E-01 0.85310E-01 0.10446     0.12897     0.22286     0.20695    
 0.16638     0.12090     0.91020E-01 0.85525E-01 0.10971     0.17641     0.29239     0.42687     0.53155     0.58918    
 0.60664     0.58918     0.53155     0.42687     0.29239     0.17641     0.10971     0.85525E-01 0.91020E-01 0.12090    
 0.16638     0.20695     0.30107     0.28539     0.24115     0.17915     0.12090     0.85310E-01 0.75510E-01 0.89661E-01
 0.13016     0.19686     0.27287     0.32920     0.34894     0.32920     0.27287     0.19686     0.13016     0.89661E-01
 0.75510E-01 0.85310E-01 0.12090     0.17915     0.24115     0.28539     0.35418     0.34174     0.30374     0.24115    
 0.16638     0.10446     0.69700E-01 0.57709E-01 0.60961E-01 0.75361E-01 0.96361E-01 0.11495     0.12217     0.11495    
 0.96361E-01 0.75361E-01 0.60961E-01 0.57709E-01 0.69700E-01 0.10446     0.16638     0.24115     0.30374     0.34174    
 0.38185     0.37239     0.34174     0.28539     0.20695     0.12897     0.75677E-01 0.48747E-01 0.37802E-01 0.34952E-01
 0.35914E-01 0.37736E-01 0.38526E-01 0.37736E-01 0.35914E-01 0.34952E-01 0.37802E-01 0.48747E-01 0.75677E-01 0.12897    
 0.20695     0.28539     0.34174     0.37239     0.39018     0.38185     0.35418     0.30107     0.22286     0.14005    
 0.79873E-01 0.47535E-01 0.32695E-01 0.26427E-01 0.24109E-01 0.23397E-01 0.23237E-01 0.23397E-01 0.24109E-01 0.26427E-01
 0.32695E-01 0.47535E-01 0.79873E-01 0.14005     0.22286     0.30107     0.35418     0.38185     0.38185     0.37239    
 0.34174     0.28539     0.20695     0.12897     0.75677E-01 0.48747E-01 0.37802E-01 0.34952E-01 0.35914E-01 0.37736E-01
 0.38526E-01 0.37736E-01 0.35914E-01 0.34952E-01 0.37802E-01 0.48747E-01 0.75677E-01 0.12897     0.20695     0.28539    
 0.34174     0.37239     0.35418     0.34174     0.30374     0.24115     0.16638     0.10446     0.69700E-01 0.57709E-01
 0.60961E-01 0.75361E-01 0.96361E-01 0.11495     0.12217     0.11495     0.96361E-01 0.75361E-01 0.60961E-01 0.57709E-01
 0.69700E-01 0.10446     0.16638     0.24115     0.30374     0.34174     0.30107     0.28539     0.24115     0.17915    
 0.12090     0.85310E-01 0.75510E-01 0.89661E-01 0.13016     0.19686     0.27287     0.32920     0.34894     0.32920    
 0.27287     0.19686     0.13016     0.89661E-01 0.75510E-01 0.85310E-01 0.12090     0.17915     0.24115     0.28539    
 0.22286     0.20695     0.16638     0.12090     0.91020E-01 0.85525E-01 0.10971     0.17641     0.29239     0.42687    
 0.53155     0.58918     0.60664     0.58918     0.53155     0.42687     0.29239     0.17641     0.10971     0.85525E-01
 0.91020E-01 0.12090     0.16638     0.20695     0.14005     0.12897     0.10446     0.85310E-01 0.85525E-01 0.11694    
 0.20217     0.35570     0.52812     0.65253     0.72113     0.75296     0.76207     0.75296     0.72113     0.65253    
 0.52812     0.35570     0.20217     0.11694     0.85525E-01 0.85310E-01 0.10446     0.12897     0.79873E-01 0.75677E-01
 0.69700E-01 0.75510E-01 0.10971     0.20217     0.37763     0.57611     0.71221     0.78414     0.81896     0.83435    
 0.83867     0.83435     0.81896     0.78414     0.71221     0.57611     0.37763     0.20217     0.10971     0.75510E-01
 0.69700E-01 0.75677E-01 0.47535E-01 0.48747E-01 0.57709E-01 0.89661E-01 0.17641     0.35570     0.57611     0.73008    
 0.80968     0.84703     0.86290     0.86829     0.86936     0.86829     0.86290     0.84703     0.80968     0.73008    
 0.57611     0.35570     0.17641     0.89661E-01 0.57709E-01 0.48747E-01 0.32695E-01 0.37802E-01 0.60961E-01 0.13016    
 0.29239     0.52812     0.71221     0.80968     0.85469     0.87144     0.87222     0.86614     0.86255     0.86614    
 0.87222     0.87144     0.85469     0.80968     0.71221     0.52812     0.29239     0.13016     0.60961E-01 0.37802E-01
 0.26427E-01 0.34952E-01 0.75361E-01 0.19686     0.42687     0.65253     0.78414     0.84703     0.87144     0.87012    
 0.84792     0.81551     0.79889     0.81551     0.84792     0.87012     0.87144     0.84703     0.78414     0.65253    
 0.42687     0.19686     0.75361E-01 0.34952E-01 0.24109E-01 0.35914E-01 0.96361E-01 0.27286     0.53155     0.72113    
 0.81896     0.86290     0.87222     0.84792     0.77973     0.67915     0.62561     0.67915     0.77973     0.84792    
 0.87222     0.86290     0.81896     0.72113     0.53155     0.27286     0.96361E-01 0.35914E-01 0.23397E-01 0.37736E-01
 0.11495     0.32920     0.58918     0.75296     0.83435     0.86829     0.86614     0.81551     0.67915     0.47503    
 0.37561     0.47503     0.67915     0.81551     0.86614     0.86829     0.83435     0.75296     0.58918     0.32920    
 0.11495     0.37736E-01 0.25916E-01 0.40784E-01 0.11864     0.33221     0.59315     0.75739     0.83775     0.86951    
 0.86303     0.80000     0.62820     0.37916     0.26972     0.37916     0.62820     0.80000     0.86303     0.86951    
 0.83775     0.75739     0.59315     0.33221     0.11864     0.40784E-01 0.26233E-01 0.40049E-01 0.11100     0.31007    
 0.57264     0.74712     0.83321     0.86845     0.86668     0.81660     0.68149     0.47849     0.37916     0.47849    
 0.68149     0.81660     0.86668     0.86845     0.83321     0.74712     0.57264     0.31007     0.11100     0.40049E-01
 0.27950E-01 0.39123E-01 0.93242E-01 0.25112     0.50638     0.71054     0.81655     0.86293     0.87286     0.84892    
 0.78136     0.68149     0.62820     0.68149     0.78136     0.84892     0.87286     0.86293     0.81655     0.71054    
 0.50638     0.25112     0.93242E-01 0.39123E-01 0.33242E-01 0.40981E-01 0.76046E-01 0.17941     0.39278     0.63092    
 0.77744     0.84609     0.87202     0.87101     0.84892     0.81660     0.80000     0.81660     0.84892     0.87101    
 0.87202     0.84609     0.77744     0.63092     0.39278     0.17941     0.76046E-01 0.40981E-01 0.46768E-01 0.50230E-01
 0.68001E-01 0.12322     0.26096     0.49111     0.69449     0.80490     0.85426     0.87202     0.87286     0.86668    
 0.86303     0.86668     0.87286     0.87202     0.85426     0.80490     0.69449     0.49111     0.26096     0.12322    
 0.68001E-01 0.50230E-01 0.80006E-01 0.76856E-01 0.76383E-01 0.95949E-01 0.16185     0.31623     0.53972     0.71398    
 0.80490     0.84609     0.86293     0.86845     0.86951     0.86845     0.86293     0.84609     0.80490     0.71398    
 0.53972     0.31623     0.16185     0.95949E-01 0.76383E-01 0.76856E-01 0.15261     0.13924     0.11324     0.99791E-01
 0.11573     0.18355     0.33586     0.53972     0.69449     0.77744     0.81655     0.83321     0.83775     0.83321    
 0.81655     0.77744     0.69449     0.53972     0.33586     0.18355     0.11573     0.99791E-01 0.11324     0.13924    
 0.26437     0.24353     0.19182     0.13966     0.11341     0.12303     0.18355     0.31623     0.49112     0.63092    
 0.71054     0.74712     0.75739     0.74712     0.71054     0.63092     0.49112     0.31623     0.18355     0.12303    
 0.11341     0.13966     0.19182     0.24353     0.36818     0.34998     0.29605     0.21838     0.14912     0.11341    
 0.11573     0.16185     0.26096     0.39279     0.50638     0.57264     0.59315     0.57264     0.50638     0.39279    
 0.26096     0.16185     0.11573     0.11341     0.14912     0.21838     0.29605     0.34998     0.43242     0.42052    
 0.38191     0.31125     0.21838     0.13966     0.99791E-01 0.95950E-01 0.12322     0.17941     0.25112     0.31007    
 0.33221     0.31007     0.25112     0.17941     0.12322     0.95950E-01 0.99791E-01 0.13966     0.21838     0.31125    
 0.38191     0.42052     0.46633     0.45862     0.43315     0.38191     0.29605     0.19182     0.11324     0.76384E-01
 0.68001E-01 0.76046E-01 0.93242E-01 0.11100     0.11864     0.11100     0.93242E-01 0.76046E-01 0.68001E-01 0.76384E-01
 0.11324     0.19182     0.29605     0.38191     0.43315     0.45862     0.48316     0.47740     0.45862     0.42052    
 0.34998     0.24353     0.13924     0.76856E-01 0.50230E-01 0.40981E-01 0.39123E-01 0.40049E-01 0.40784E-01 0.40049E-01
 0.39123E-01 0.40981E-01 0.50230E-01 0.76856E-01 0.13924     0.24353     0.34998     0.42052     0.45862     0.47740    
 0.48836     0.48316     0.46633     0.43242     0.36818     0.26437     0.15261     0.80006E-01 0.46768E-01 0.33243E-01
 0.27950E-01 0.26233E-01 0.25916E-01 0.26233E-01 0.27950E-01 0.33243E-01 0.46768E-01 0.80006E-01 0.15261     0.26437    
 0.36818     0.43242     0.46633     0.48316     0.48316     0.47740     0.45862     0.42052     0.34998     0.24353    
 0.13924     0.76856E-01 0.50230E-01 0.40981E-01 0.39123E-01 0.40049E-01 0.40784E-01 0.40049E-01 0.39123E-01 0.40981E-01
 0.50230E-01 0.76856E-01 0.13924     0.24353     0.34998     0.42052     0.45862     0.47740     0.46633     0.45862    
 0.43315     0.38191     0.29605     0.19182     0.11324     0.76384E-01 0.68001E-01 0.76046E-01 0.93242E-01 0.11100    
 0.11864     0.11100     0.93242E-01 0.76046E-01 0.68001E-01 0.76384E-01 0.11324     0.19182     0.29605     0.38191    
 0.43315     0.45862     0.43242     0.42052     0.38191     0.31125     0.21838     0.13966     0.99791E-01 0.95950E-01
 0.12322     0.17941     0.25112     0.31007     0.33221     0.31007     0.25112     0.17941     0.12322     0.95950E-01
 0.99791E-01 0.13966     0.21838     0.31125     0.38191     0.42052     0.36818     0.34998     0.29605     0.21838    
 0.14912     0.11341     0.11573     0.16185     0.26096     0.39279     0.50638     0.57264     0.59315     0.57264    
 0.50638     0.39279     0.26096     0.16185     0.11573     0.11341     0.14912     0.21838     0.29605     0.34998    
 0.26437     0.24353     0.19182     0.13966     0.11341     0.12303     0.18355     0.31623     0.49112     0.63092    
 0.71054     0.74712     0.75739     0.74712     0.71054     0.63092     0.49112     0.31623     0.18355     0.12303    
 0.11341     0.13966     0.19182     0.24353     0.15261     0.13924     0.11324     0.99791E-01 0.11573     0.18355    
 0.33586     0.53972     0.69449     0.77744     0.81655     0.83321     0.83775     0.83321     0.81655     0.77744    
 0.69449     0.53972     0.33586     0.18355     0.11573     0.99791E-01 0.11324     0.13924     0.80006E-01 0.76856E-01
 0.76383E-01 0.95949E-01 0.16185     0.31623     0.53972     0.71398     0.80490     0.84609     0.86293     0.86845    
 0.86951     0.86845     0.86293     0.84609     0.80490     0.71398     0.53972     0.31623     0.16185     0.95949E-01
 0.76383E-01 0.76856E-01 0.46768E-01 0.50230E-01 0.68001E-01 0.12322     0.26096     0.49111     0.69449     0.80490    
 0.85426     0.87202     0.87286     0.86668     0.86303     0.86668     0.87286     0.87202     0.85426     0.80490    
 0.69449     0.49111     0.26096     0.12322     0.68001E-01 0.50230E-01 0.33242E-01 0.40981E-01 0.76046E-01 0.17941    
 0.39278     0.63092     0.77744     0.84609     0.87202     0.87101     0.84892     0.81660     0.80000     0.81660    
 0.84892     0.87101     0.87202     0.84609     0.77744     0.63092     0.39278     0.17941     0.76046E-01 0.40981E-01
 0.27950E-01 0.39123E-01 0.93242E-01 0.25112     0.50638     0.71054     0.81655     0.86293     0.87286     0.84892    
 0.78136     0.68149     0.62820     0.68149     0.78136     0.84892     0.87286     0.86293     0.81655     0.71054    
 0.50638     0.25112     0.93242E-01 0.39123E-01 0.26233E-01 0.40049E-01 0.11100     0.31007     0.57264     0.74712    
 0.83321     0.86845     0.86668     0.81660     0.68149     0.47849     0.37916     0.47849     0.68149     0.81660    
 0.86668     0.86845     0.83321     0.74712     0.57264     0.31007     0.11100     0.40049E-01 0.27367E-01 0.40273E-01
 0.10528     0.29089     0.55256     0.73630     0.82830     0.86697     0.86910     0.82873     0.72012     0.55570    
 0.47081     0.55570     0.72012     0.82873     0.86910     0.86697     0.82830     0.73630     0.55256     0.29089    
 0.10528     0.40273E-01 0.28218E-01 0.40165E-01 0.98842E-01 0.26842     0.52731     0.72289     0.82255     0.86521    
 0.87132     0.83970     0.75364     0.62430     0.55570     0.62430     0.75364     0.83970     0.87132     0.86521    
 0.82255     0.72289     0.52731     0.26842     0.98842E-01 0.40165E-01 0.31969E-01 0.41473E-01 0.85304E-01 0.21345    
 0.45094     0.67611     0.80150     0.85747     0.87418     0.86110     0.81711     0.75364     0.72012     0.75364    
 0.81711     0.86110     0.87418     0.85747     0.80150     0.67611     0.45094     0.21345     0.85304E-01 0.41473E-01
 0.42352E-01 0.48204E-01 0.74928E-01 0.15385     0.33393     0.57849     0.75197     0.83588     0.86928     0.87446    
 0.86110     0.83970     0.82873     0.83970     0.86110     0.87446     0.86928     0.83588     0.75197     0.57849    
 0.33393     0.15385     0.74928E-01 0.48204E-01 0.69338E-01 0.69208E-01 0.77557E-01 0.11450     0.21749     0.42276    
 0.64765     0.78385     0.84562     0.86928     0.87418     0.87132     0.86910     0.87132     0.87418     0.86928    
 0.84562     0.78385     0.64765     0.42276     0.21749     0.11450     0.77557E-01 0.69208E-01 0.13545     0.12459    
 0.10707     0.10739     0.14662     0.26116     0.46862     0.66937     0.78385     0.83588     0.85747     0.86521    
 0.86697     0.86521     0.85747     0.83588     0.78385     0.66937     0.46862     0.26116     0.14662     0.10739    
 0.10707     0.12459     0.25241     0.23110     0.18179     0.13941     0.12871     0.16476     0.27683     0.46862    
 0.64765     0.75197     0.80150     0.82255     0.82830     0.82255     0.80150     0.75197     0.64765     0.46862    
 0.27683     0.16476     0.12871     0.13941     0.18179     0.23110     0.37009     0.35058     0.29342     0.21663    
 0.15691     0.13645     0.16476     0.26116     0.42276     0.57849     0.67611     0.72289     0.73630     0.72289    
 0.67611     0.57849     0.42276     0.26116     0.16476     0.13645     0.15691     0.21663     0.29342     0.35058    
 0.44954     0.43629     0.39375     0.31897     0.22763     0.15691     0.12871     0.14662     0.21749     0.33393    
 0.45094     0.52731     0.55256     0.52731     0.45094     0.33393     0.21749     0.14662     0.12871     0.15691    
 0.22763     0.31897     0.39375     0.43629     0.50496     0.49481     0.46320     0.40603     0.31897     0.21663    
 0.13941     0.10739     0.11450     0.15385     0.21345     0.26842     0.29089     0.26842     0.21345     0.15385    
 0.11450     0.10739     0.13941     0.21663     0.31897     0.40603     0.46320     0.49481     0.54450     0.53583    
 0.50919     0.46320     0.39375     0.29342     0.18179     0.10707     0.77557E-01 0.74928E-01 0.85304E-01 0.98842E-01
 0.10528     0.98842E-01 0.85304E-01 0.74928E-01 0.77557E-01 0.10707     0.18179     0.29342     0.39375     0.46320    
 0.50919     0.53583     0.56714     0.55959     0.53583     0.49481     0.43629     0.35058     0.23110     0.12459    
 0.69208E-01 0.48205E-01 0.41473E-01 0.40165E-01 0.40273E-01 0.40165E-01 0.41473E-01 0.48205E-01 0.69208E-01 0.12459    
 0.23110     0.35058     0.43629     0.49481     0.53583     0.55959     0.57423     0.56714     0.54450     0.50496    
 0.44954     0.37009     0.25241     0.13545     0.69338E-01 0.42352E-01 0.31969E-01 0.28218E-01 0.27367E-01 0.28218E-01
 0.31969E-01 0.42352E-01 0.69338E-01 0.13545     0.25241     0.37009     0.44954     0.50496     0.54450     0.56714    
 0.56714     0.55959     0.53583     0.49481     0.43629     0.35058     0.23110     0.12459     0.69208E-01 0.48205E-01
 0.41473E-01 0.40165E-01 0.40273E-01 0.40165E-01 0.41473E-01 0.48205E-01 0.69208E-01 0.12459     0.23110     0.35058    
 0.43629     0.49481     0.53583     0.55959     0.54450     0.53583     0.50919     0.46320     0.39375     0.29342    
 0.18179     0.10707     0.77557E-01 0.74928E-01 0.85304E-01 0.98842E-01 0.10528     0.98842E-01 0.85304E-01 0.74928E-01
 0.77557E-01 0.10707     0.18179     0.29342     0.39375     0.46320     0.50919     0.53583     0.50496     0.49481    
 0.46320     0.40603     0.31897     0.21663     0.13941     0.10739     0.11450     0.15385     0.21345     0.26842    
 0.29089     0.26842     0.21345     0.15385     0.11450     0.10739     0.13941     0.21663     0.31897     0.40603    
 0.46320     0.49481     0.44954     0.43629     0.39375     0.31897     0.22763     0.15691     0.12871     0.14662    
 0.21749     0.33393     0.45094     0.52731     0.55256     0.52731     0.45094     0.33393     0.21749     0.14662    
 0.12871     0.15691     0.22763     0.31897     0.39375     0.43629     0.37009     0.35058     0.29342     0.21663    
 0.15691     0.13645     0.16476     0.26116     0.42276     0.57849     0.67611     0.72289     0.73630     0.72289    
 0.67611     0.57849     0.42276     0.26116     0.16476     0.13645     0.15691     0.21663     0.29342     0.35058    
 0.25241     0.23110     0.18179     0.13941     0.12871     0.16476     0.27683     0.46862     0.64765     0.75197    
 0.80150     0.82255     0.82830     0.82255     0.80150     0.75197     0.64765     0.46862     0.27683     0.16476    
 0.12871     0.13941     0.18179     0.23110     0.13545     0.12459     0.10707     0.10739     0.14662     0.26116    
 0.46862     0.66937     0.78385     0.83588     0.85747     0.86521     0.86697     0.86521     0.85747     0.83588    
 0.78385     0.66937     0.46862     0.26116     0.14662     0.10739     0.10707     0.12459     0.69338E-01 0.69208E-01
 0.77557E-01 0.11450     0.21749     0.42276     0.64765     0.78385     0.84562     0.86928     0.87418     0.87132    
 0.86910     0.87132     0.87418     0.86928     0.84562     0.78385     0.64765     0.42276     0.21749     0.11450    
 0.77557E-01 0.69208E-01 0.42352E-01 0.48204E-01 0.74928E-01 0.15385     0.33393     0.57849     0.75197     0.83588    
 0.86928     0.87446     0.86110     0.83970     0.82873     0.83970     0.86110     0.87446     0.86928     0.83588    
 0.75197     0.57849     0.33393     0.15385     0.74928E-01 0.48204E-01 0.31969E-01 0.41473E-01 0.85304E-01 0.21345    
 0.45094     0.67611     0.80150     0.85747     0.87418     0.86110     0.81711     0.75364     0.72012     0.75364    
 0.81711     0.86110     0.87418     0.85747     0.80150     0.67611     0.45094     0.21345     0.85304E-01 0.41473E-01
 0.28218E-01 0.40165E-01 0.98842E-01 0.26842     0.52731     0.72289     0.82255     0.86521     0.87132     0.83970    
 0.75364     0.62430     0.55570     0.62430     0.75364     0.83970     0.87132     0.86521     0.82255     0.72289    
 0.52731     0.26842     0.98842E-01 0.40165E-01 0.27964E-01 0.37929E-01 0.85731E-01 0.22787     0.47501     0.68951    
 0.80509     0.85717     0.87235     0.85782     0.81109     0.74365     0.70801     0.74365     0.81109     0.85782    
 0.87235     0.85717     0.80509     0.68951     0.47501     0.22787     0.85731E-01 0.37929E-01 0.29605E-01 0.38784E-01
 0.81704E-01 0.20910     0.44605     0.67087     0.79685     0.85406     0.87261     0.86279     0.82538     0.77174    
 0.74365     0.77174     0.82538     0.86279     0.87261     0.85406     0.79685     0.67087     0.44605     0.20910    
 0.81704E-01 0.38784E-01 0.36092E-01 0.43069E-01 0.74378E-01 0.16652     0.36593     0.60881     0.76717     0.84181    
 0.87046     0.87181     0.85323     0.82538     0.81109     0.82538     0.85323     0.87181     0.87046     0.84181    
 0.76717     0.60881     0.36593     0.16652     0.74378E-01 0.43069E-01 0.54110E-01 0.57034E-01 0.73473E-01 0.12626    
 0.26030     0.49076     0.69868     0.81031     0.85823     0.87373     0.87181     0.86279     0.85782     0.86279    
 0.87181     0.87373     0.85823     0.81031     0.69868     0.49076     0.26030     0.12626     0.73473E-01 0.57034E-01
 0.10308     0.97623E-01 0.92847E-01 0.10944     0.17495     0.33355     0.56348     0.73705     0.82257     0.85823    
 0.87046     0.87261     0.87235     0.87261     0.87046     0.85823     0.82257     0.73705     0.56348     0.33355    
 0.17495     0.10944     0.92847E-01 0.97623E-01 0.20859     0.19066     0.15333     0.12889     0.13918     0.20873    
 0.37254     0.58666     0.73705     0.81031     0.84181     0.85406     0.85717     0.85406     0.84181     0.81031    
 0.73705     0.58666     0.37254     0.20873     0.13918     0.12889     0.15333     0.19066     0.33915     0.31822    
 0.26100     0.19416     0.15299     0.15560     0.22079     0.37254     0.56348     0.69868     0.76717     0.79685    
 0.80509     0.79685     0.76717     0.69868     0.56348     0.37254     0.22079     0.15560     0.15299     0.19416    
 0.26100     0.31822     0.44355     0.42725     0.37682     0.29659     0.21327     0.16111     0.15560     0.20874    
 0.33355     0.49076     0.60881     0.67087     0.68951     0.67087     0.60881     0.49076     0.33355     0.20874    
 0.15560     0.16111     0.21327     0.29659     0.37682     0.42725     0.52974     0.51663     0.47550     0.40363    
 0.30744     0.21327     0.15299     0.13918     0.17495     0.26030     0.36593     0.44605     0.47502     0.44605    
 0.36593     0.26030     0.17495     0.13918     0.15299     0.21327     0.30744     0.40363     0.47550     0.51663    
 0.59191     0.58244     0.55106     0.49175     0.40362     0.29659     0.19416     0.12889     0.10944     0.12626    
 0.16652     0.20910     0.22787     0.20910     0.16652     0.12626     0.10944     0.12889     0.19416     0.29659    
 0.40362     0.49175     0.55106     0.58244     0.62199     0.61670     0.59642     0.55106     0.47550     0.37681    
 0.26100     0.15333     0.92847E-01 0.73474E-01 0.74378E-01 0.81705E-01 0.85731E-01 0.81705E-01 0.74378E-01 0.73473E-01
 0.92847E-01 0.15333     0.26100     0.37681     0.47550     0.55106     0.59642     0.61670     0.63052     0.62841    
 0.61670     0.58244     0.51663     0.42725     0.31821     0.19066     0.97623E-01 0.57034E-01 0.43069E-01 0.38785E-01
 0.37930E-01 0.38785E-01 0.43069E-01 0.57034E-01 0.97623E-01 0.19066     0.31821     0.42725     0.51663     0.58244    
 0.61670     0.62841     0.63147     0.63052     0.62199     0.59191     0.52974     0.44354     0.33915     0.20859    
 0.10307     0.54110E-01 0.36092E-01 0.29605E-01 0.27964E-01 0.29605E-01 0.36092E-01 0.54110E-01 0.10307     0.20859    
 0.33915     0.44354     0.52974     0.59191     0.62199     0.63052     0.63052     0.62841     0.61670     0.58244    
 0.51663     0.42725     0.31821     0.19066     0.97623E-01 0.57034E-01 0.43069E-01 0.38785E-01 0.37930E-01 0.38785E-01
 0.43069E-01 0.57034E-01 0.97623E-01 0.19066     0.31821     0.42725     0.51663     0.58244     0.61670     0.62841    
 0.62199     0.61670     0.59642     0.55106     0.47550     0.37681     0.26100     0.15333     0.92847E-01 0.73474E-01
 0.74378E-01 0.81705E-01 0.85731E-01 0.81705E-01 0.74378E-01 0.73473E-01 0.92847E-01 0.15333     0.26100     0.37681    
 0.47550     0.55106     0.59642     0.61670     0.59191     0.58244     0.55106     0.49175     0.40362     0.29659    
 0.19416     0.12889     0.10944     0.12626     0.16652     0.20910     0.22787     0.20910     0.16652     0.12626    
 0.10944     0.12889     0.19416     0.29659     0.40362     0.49175     0.55106     0.58244     0.52974     0.51663    
 0.47550     0.40363     0.30744     0.21327     0.15299     0.13918     0.17495     0.26030     0.36593     0.44605    
 0.47502     0.44605     0.36593     0.26030     0.17495     0.13918     0.15299     0.21327     0.30744     0.40363    
 0.47550     0.51663     0.44355     0.42725     0.37682     0.29659     0.21327     0.16111     0.15560     0.20874    
 0.33355     0.49076     0.60881     0.67087     0.68951     0.67087     0.60881     0.49076     0.33355     0.20874    
 0.15560     0.16111     0.21327     0.29659     0.37682     0.42725     0.33915     0.31822     0.26100     0.19416    
 0.15299     0.15560     0.22079     0.37254     0.56348     0.69868     0.76717     0.79685     0.80509     0.79685    
 0.76717     0.69868     0.56348     0.37254     0.22079     0.15560     0.15299     0.19416     0.26100     0.31822    
 0.20859     0.19066     0.15333     0.12889     0.13918     0.20873     0.37254     0.58666     0.73705     0.81031    
 0.84181     0.85406     0.85717     0.85406     0.84181     0.81031     0.73705     0.58666     0.37254     0.20873    
 0.13918     0.12889     0.15333     0.19066     0.10308     0.97623E-01 0.92847E-01 0.10944     0.17495     0.33355    
 0.56348     0.73705     0.82257     0.85823     0.87046     0.87261     0.87235     0.87261     0.87046     0.85823    
 0.82257     0.73705     0.56348     0.33355     0.17495     0.10944     0.92847E-01 0.97623E-01 0.54110E-01 0.57034E-01
 0.73473E-01 0.12626     0.26030     0.49076     0.69868     0.81031     0.85823     0.87373     0.87181     0.86279    
 0.85782     0.86279     0.87181     0.87373     0.85823     0.81031     0.69868     0.49076     0.26030     0.12626    
 0.73473E-01 0.57034E-01 0.36092E-01 0.43069E-01 0.74378E-01 0.16652     0.36593     0.60881     0.76717     0.84181    
 0.87046     0.87181     0.85323     0.82538     0.81109     0.82538     0.85323     0.87181     0.87046     0.84181    
 0.76717     0.60881     0.36593     0.16652     0.74378E-01 0.43069E-01 0.29605E-01 0.38784E-01 0.81704E-01 0.20910    
 0.44605     0.67087     0.79685     0.85406     0.87261     0.86279     0.82538     0.77174     0.74365     0.77174    
 0.82538     0.86279     0.87261     0.85406     0.79685     0.67087     0.44605     0.20910     0.81704E-01 0.38784E-01
 0.28237E-01 0.35089E-01 0.66220E-01 0.15973     0.36039     0.59982     0.75642     0.83264     0.86441     0.86996    
 0.85760     0.83742     0.82707     0.83742     0.85760     0.86996     0.86441     0.83264     0.75642     0.59982    
 0.36039     0.15973     0.66220E-01 0.35089E-01 0.30903E-01 0.37151E-01 0.65076E-01 0.14803     0.33342     0.57489    
 0.74371     0.82719     0.86253     0.87085     0.86197     0.84578     0.83742     0.84578     0.86197     0.87085    
 0.86253     0.82719     0.74371     0.57489     0.33342     0.14803     0.65076E-01 0.37151E-01 0.41029E-01 0.45253E-01
 0.64685E-01 0.12267     0.26492     0.49755     0.69911     0.80688     0.85421     0.87041     0.86970     0.86197    
 0.85760     0.86197     0.86970     0.87041     0.85421     0.80688     0.69911     0.49755     0.26492     0.12267    
 0.64685E-01 0.45253E-01 0.70008E-01 0.69481E-01 0.75089E-01 0.10400     0.18858     0.37206     0.60266     0.75755    
 0.83087     0.86100     0.87041     0.87085     0.86996     0.87085     0.87041     0.86100     0.83087     0.75755    
 0.60266     0.37206     0.18858     0.10400     0.75089E-01 0.69481E-01 0.14626     0.13547     0.11590     0.11120    
 0.14239     0.24383     0.44207     0.65033     0.77430     0.83087     0.85421     0.86253     0.86441     0.86253    
 0.85421     0.83087     0.77430     0.65033     0.44207     0.24383     0.14239     0.11120     0.11590     0.13547    
 0.27523     0.25559     0.20691     0.15940     0.14131     0.17028     0.27531     0.46572     0.65033     0.75755    
 0.80688     0.82719     0.83264     0.82719     0.80688     0.75755     0.65033     0.46572     0.27531     0.17028    
 0.14131     0.15940     0.20691     0.25559     0.40381     0.38516     0.33038     0.25315     0.18656     0.15783    
 0.18050     0.27531     0.44207     0.60266     0.69911     0.74371     0.75642     0.74371     0.69911     0.60266    
 0.44207     0.27531     0.18050     0.15783     0.18656     0.25315     0.33038     0.38516     0.52238     0.50679    
 0.45790     0.37521     0.27600     0.19564     0.15783     0.17028     0.24383     0.37206     0.49755     0.57490    
 0.59983     0.57490     0.49755     0.37206     0.24383     0.17028     0.15783     0.19564     0.27600     0.37521    
 0.45790     0.50679     0.60686     0.59742     0.56428     0.49636     0.39153     0.27600     0.18656     0.14131    
 0.14239     0.18858     0.26492     0.33343     0.36040     0.33343     0.26492     0.18858     0.14239     0.14131    
 0.18656     0.27600     0.39153     0.49636     0.56428     0.59742     0.63366     0.63160     0.61940     0.58029    
 0.49636     0.37521     0.25315     0.15940     0.11120     0.10400     0.12267     0.14803     0.15974     0.14803    
 0.12267     0.10400     0.11120     0.15940     0.25315     0.37521     0.49636     0.58029     0.61940     0.63160    
 0.62106     0.62539     0.63133     0.61940     0.56428     0.45790     0.33038     0.20691     0.11590     0.75089E-01
 0.64685E-01 0.65076E-01 0.66221E-01 0.65076E-01 0.64685E-01 0.75089E-01 0.11590     0.20691     0.33038     0.45790    
 0.56428     0.61940     0.63133     0.62539     0.59805     0.60695     0.62539     0.63160     0.59742     0.50679    
 0.38516     0.25559     0.13547     0.69480E-01 0.45253E-01 0.37151E-01 0.35089E-01 0.37151E-01 0.45253E-01 0.69480E-01
 0.13547     0.25559     0.38516     0.50679     0.59742     0.63160     0.62539     0.60695     0.58746     0.59805    
 0.62106     0.63366     0.60686     0.52238     0.40381     0.27523     0.14626     0.70008E-01 0.41029E-01 0.30903E-01
 0.28237E-01 0.30903E-01 0.41029E-01 0.70008E-01 0.14626     0.27523     0.40381     0.52238     0.60686     0.63366    
 0.62106     0.59805     0.59805     0.60695     0.62539     0.63160     0.59742     0.50679     0.38516     0.25559    
 0.13547     0.69480E-01 0.45253E-01 0.37151E-01 0.35089E-01 0.37151E-01 0.45253E-01 0.69480E-01 0.13547     0.25559    
 0.38516     0.50679     0.59742     0.63160     0.62539     0.60695     0.62106     0.62539     0.63133     0.61940    
 0.56428     0.45790     0.33038     0.20691     0.11590     0.75089E-01 0.64685E-01 0.65076E-01 0.66221E-01 0.65076E-01
 0.64685E-01 0.75089E-01 0.11590     0.20691     0.33038     0.45790     0.56428     0.61940     0.63133     0.62539    
 0.63366     0.63160     0.61940     0.58029     0.49636     0.37521     0.25315     0.15940     0.11120     0.10400    
 0.12267     0.14803     0.15974     0.14803     0.12267     0.10400     0.11120     0.15940     0.25315     0.37521    
 0.49636     0.58029     0.61940     0.63160     0.60686     0.59742     0.56428     0.49636     0.39153     0.27600    
 0.18656     0.14131     0.14239     0.18858     0.26492     0.33343     0.36040     0.33343     0.26492     0.18858    
 0.14239     0.14131     0.18656     0.27600     0.39153     0.49636     0.56428     0.59742     0.52238     0.50679    
 0.45790     0.37521     0.27600     0.19564     0.15783     0.17028     0.24383     0.37206     0.49755     0.57490    
 0.59983     0.57490     0.49755     0.37206     0.24383     0.17028     0.15783     0.19564     0.27600     0.37521    
 0.45790     0.50679     0.40381     0.38516     0.33038     0.25315     0.18656     0.15783     0.18050     0.27531    
 0.44207     0.60266     0.69911     0.74371     0.75642     0.74371     0.69911     0.60266     0.44207     0.27531    
 0.18050     0.15783     0.18656     0.25315     0.33038     0.38516     0.27523     0.25559     0.20691     0.15940    
 0.14131     0.17028     0.27531     0.46572     0.65033     0.75755     0.80688     0.82719     0.83264     0.82719    
 0.80688     0.75755     0.65033     0.46572     0.27531     0.17028     0.14131     0.15940     0.20691     0.25559    
 0.14626     0.13547     0.11590     0.11120     0.14239     0.24383     0.44207     0.65033     0.77430     0.83087    
 0.85421     0.86253     0.86441     0.86253     0.85421     0.83087     0.77430     0.65033     0.44207     0.24383    
 0.14239     0.11120     0.11590     0.13547     0.70008E-01 0.69481E-01 0.75089E-01 0.10400     0.18858     0.37206    
 0.60266     0.75755     0.83087     0.86100     0.87041     0.87085     0.86996     0.87085     0.87041     0.86100    
 0.83087     0.75755     0.60266     0.37206     0.18858     0.10400     0.75089E-01 0.69481E-01 0.41029E-01 0.45253E-01
 0.64685E-01 0.12267     0.26492     0.49755     0.69911     0.80688     0.85421     0.87041     0.86970     0.86197    
 0.85760     0.86197     0.86970     0.87041     0.85421     0.80688     0.69911     0.49755     0.26492     0.12267    
 0.64685E-01 0.45253E-01 0.30903E-01 0.37151E-01 0.65076E-01 0.14803     0.33342     0.57489     0.74371     0.82719    
 0.86253     0.87085     0.86197     0.84578     0.83742     0.84578     0.86197     0.87085     0.86253     0.82719    
 0.74371     0.57489     0.33342     0.14803     0.65076E-01 0.37151E-01 0.29077E-01 0.33192E-01 0.51025E-01 0.10372    
 0.23512     0.45732     0.66212     0.78002     0.83646     0.85998     0.86600     0.86427     0.86254     0.86427    
 0.86600     0.85998     0.83646     0.78002     0.66212     0.45732     0.23512     0.10372     0.51025E-01 0.33192E-01
 0.32686E-01 0.36347E-01 0.52300E-01 0.99165E-01 0.21743     0.42995     0.64245     0.77025     0.83181     0.85794    
 0.86576     0.86542     0.86427     0.86542     0.86576     0.85794     0.83181     0.77025     0.64245     0.42995    
 0.21743     0.99165E-01 0.52300E-01 0.36347E-01 0.46922E-01 0.48716E-01 0.58456E-01 0.90150E-01 0.17498     0.35300    
 0.57772     0.73560     0.81466     0.84944     0.86252     0.86576     0.86600     0.86576     0.86252     0.84944    
 0.81466     0.73560     0.57772     0.35300     0.17498     0.90150E-01 0.58456E-01 0.48716E-01 0.89244E-01 0.85640E-01
 0.81371E-01 0.90958E-01 0.13507     0.25165     0.45787     0.65768     0.77335     0.82676     0.84944     0.85794    
 0.85998     0.85794     0.84944     0.82676     0.77335     0.65768     0.45787     0.25165     0.13507     0.90958E-01
 0.81371E-01 0.85640E-01 0.18901     0.17548     0.14485     0.12084     0.12378     0.17445     0.30777     0.51250    
 0.68231     0.77335     0.81466     0.83181     0.83646     0.83181     0.81466     0.77335     0.68231     0.51250    
 0.30777     0.17445     0.12378     0.12084     0.14485     0.17548     0.32446     0.30632     0.25644     0.19499    
 0.15232     0.14774     0.19814     0.32852     0.51250     0.65768     0.73560     0.77025     0.78003     0.77025    
 0.73560     0.65768     0.51250     0.32852     0.19814     0.14774     0.15232     0.19499     0.25644     0.30632    
 0.46612     0.44845     0.39509     0.31237     0.22618     0.16914     0.15653     0.19814     0.30777     0.45787    
 0.57772     0.64245     0.66212     0.64245     0.57772     0.45787     0.30777     0.19814     0.15653     0.16914    
 0.22618     0.31237     0.39509     0.44845     0.58715     0.57558     0.53582     0.45747     0.34533     0.23735    
 0.16914     0.14774     0.17445     0.25165     0.35300     0.42996     0.45732     0.42996     0.35300     0.25165    
 0.17445     0.14774     0.16914     0.23735     0.34533     0.45747     0.53582     0.57558     0.62816     0.62629    
 0.61415     0.57271     0.47944     0.34533     0.22618     0.15232     0.12378     0.13507     0.17498     0.21744    
 0.23513     0.21744     0.17498     0.13507     0.12378     0.15232     0.22618     0.34533     0.47944     0.57271    
 0.61415     0.62629     0.59801     0.60526     0.61953     0.61935     0.57271     0.45747     0.31237     0.19499    
 0.12084     0.90958E-01 0.90150E-01 0.99166E-01 0.10372     0.99166E-01 0.90150E-01 0.90958E-01 0.12084     0.19499    
 0.31237     0.45747     0.57271     0.61935     0.61953     0.60526     0.53405     0.54933     0.58622     0.61953    
 0.61415     0.53581     0.39509     0.25644     0.14485     0.81371E-01 0.58456E-01 0.52300E-01 0.51025E-01 0.52300E-01
 0.58456E-01 0.81371E-01 0.14485     0.25644     0.39509     0.53581     0.61415     0.61953     0.58622     0.54933    
 0.47633     0.49691     0.54933     0.60526     0.62628     0.57558     0.44845     0.30632     0.17548     0.85639E-01
 0.48715E-01 0.36347E-01 0.33192E-01 0.36347E-01 0.48715E-01 0.85639E-01 0.17548     0.30632     0.44845     0.57558    
 0.62628     0.60526     0.54933     0.49691     0.45404     0.47633     0.53405     0.59801     0.62816     0.58714    
 0.46612     0.32445     0.18901     0.89243E-01 0.46922E-01 0.32686E-01 0.29077E-01 0.32686E-01 0.46922E-01 0.89243E-01
 0.18901     0.32445     0.46612     0.58714     0.62816     0.59801     0.53405     0.47633     0.47633     0.49691    
 0.54933     0.60526     0.62628     0.57558     0.44845     0.30632     0.17548     0.85639E-01 0.48715E-01 0.36347E-01
 0.33192E-01 0.36347E-01 0.48715E-01 0.85639E-01 0.17548     0.30632     0.44845     0.57558     0.62628     0.60526    
 0.54933     0.49691     0.53405     0.54933     0.58622     0.61953     0.61415     0.53581     0.39509     0.25644    
 0.14485     0.81371E-01 0.58456E-01 0.52300E-01 0.51025E-01 0.52300E-01 0.58456E-01 0.81371E-01 0.14485     0.25644    
 0.39509     0.53581     0.61415     0.61953     0.58622     0.54933     0.59801     0.60526     0.61953     0.61935    
 0.57271     0.45747     0.31237     0.19499     0.12084     0.90958E-01 0.90150E-01 0.99166E-01 0.10372     0.99166E-01
 0.90150E-01 0.90958E-01 0.12084     0.19499     0.31237     0.45747     0.57271     0.61935     0.61953     0.60526    
 0.62816     0.62629     0.61415     0.57271     0.47944     0.34533     0.22618     0.15232     0.12378     0.13507    
 0.17498     0.21744     0.23513     0.21744     0.17498     0.13507     0.12378     0.15232     0.22618     0.34533    
 0.47944     0.57271     0.61415     0.62629     0.58715     0.57558     0.53582     0.45747     0.34533     0.23735    
 0.16914     0.14774     0.17445     0.25165     0.35300     0.42996     0.45732     0.42996     0.35300     0.25165    
 0.17445     0.14774     0.16914     0.23735     0.34533     0.45747     0.53582     0.57558     0.46612     0.44845    
 0.39509     0.31237     0.22618     0.16914     0.15653     0.19814     0.30777     0.45787     0.57772     0.64245    
 0.66212     0.64245     0.57772     0.45787     0.30777     0.19814     0.15653     0.16914     0.22618     0.31237    
 0.39509     0.44845     0.32446     0.30632     0.25644     0.19499     0.15232     0.14774     0.19814     0.32852    
 0.51250     0.65768     0.73560     0.77025     0.78003     0.77025     0.73560     0.65768     0.51250     0.32852    
 0.19814     0.14774     0.15232     0.19499     0.25644     0.30632     0.18901     0.17548     0.14485     0.12084    
 0.12378     0.17445     0.30777     0.51250     0.68231     0.77335     0.81466     0.83181     0.83646     0.83181    
 0.81466     0.77335     0.68231     0.51250     0.30777     0.17445     0.12378     0.12084     0.14485     0.17548    
 0.89244E-01 0.85640E-01 0.81371E-01 0.90958E-01 0.13507     0.25165     0.45787     0.65768     0.77335     0.82676    
 0.84944     0.85794     0.85998     0.85794     0.84944     0.82676     0.77335     0.65768     0.45787     0.25165    
 0.13507     0.90958E-01 0.81371E-01 0.85640E-01 0.46922E-01 0.48716E-01 0.58456E-01 0.90150E-01 0.17498     0.35300    
 0.57772     0.73560     0.81466     0.84944     0.86252     0.86576     0.86600     0.86576     0.86252     0.84944    
 0.81466     0.73560     0.57772     0.35300     0.17498     0.90150E-01 0.58456E-01 0.48716E-01 0.32686E-01 0.36347E-01
 0.52300E-01 0.99165E-01 0.21743     0.42995     0.64245     0.77025     0.83181     0.85794     0.86576     0.86542    
 0.86427     0.86542     0.86576     0.85794     0.83181     0.77025     0.64245     0.42995     0.21743     0.99165E-01
 0.52300E-01 0.36347E-01 0.31569E-01 0.33171E-01 0.40660E-01 0.64178E-01 0.12980     0.28072     0.49927     0.67516    
 0.77296     0.82107     0.84304     0.85171     0.85385     0.85171     0.84304     0.82107     0.77296     0.67516    
 0.49927     0.28072     0.12980     0.64178E-01 0.40660E-01 0.33171E-01 0.35607E-01 0.36920E-01 0.43418E-01 0.64495E-01
 0.12356     0.26204     0.47509     0.65864     0.76396     0.81589     0.83969     0.84928     0.85171     0.84928    
 0.83969     0.81589     0.76396     0.65864     0.47509     0.26204     0.12356     0.64495E-01 0.43418E-01 0.36920E-01
 0.52498E-01 0.52300E-01 0.54423E-01 0.67431E-01 0.10897     0.21376     0.40352     0.60348     0.73221     0.79719    
 0.82718     0.83969     0.84304     0.83969     0.82718     0.79719     0.73221     0.60348     0.40352     0.21376    
 0.10897     0.67431E-01 0.54423E-01 0.52300E-01 0.10363     0.98604E-01 0.88067E-01 0.83867E-01 0.10042     0.16017    
 0.29707     0.49582     0.66109     0.75350     0.79719     0.81589     0.82107     0.81589     0.79719     0.75350    
 0.66109     0.49582     0.29707     0.16017     0.10042     0.83867E-01 0.88067E-01 0.98604E-01 0.21279     0.20052    
 0.16865     0.13381     0.11625     0.13079     0.19863     0.34381     0.52646     0.66109     0.73221     0.76397    
 0.77297     0.76397     0.73221     0.66109     0.52646     0.34381     0.19863     0.13079     0.11625     0.13381    
 0.16865     0.20052     0.35645     0.34041     0.29429     0.22918     0.16953     0.13835     0.14750     0.21233    
 0.34381     0.49582     0.60349     0.65864     0.67516     0.65864     0.60348     0.49582     0.34381     0.21233    
 0.14750     0.13835     0.16953     0.22918     0.29429     0.34041     0.51639     0.50116     0.45268     0.36940    
 0.26896     0.18711     0.14545     0.14750     0.19864     0.29707     0.40353     0.47509     0.49928     0.47509    
 0.40353     0.29707     0.19864     0.14750     0.14545     0.18711     0.26896     0.36940     0.45268     0.50116    
 0.60886     0.60332     0.58015     0.52130     0.41285     0.28348     0.18711     0.13835     0.13079     0.16017    
 0.21376     0.26204     0.28072     0.26204     0.21376     0.16017     0.13079     0.13835     0.18711     0.28348    
 0.41285     0.52130     0.58015     0.60332     0.59375     0.59926     0.60856     0.60023     0.54112     0.41285    
 0.26896     0.16953     0.11625     0.10042     0.10897     0.12356     0.12980     0.12356     0.10897     0.10042    
 0.11625     0.16953     0.26896     0.41285     0.54112     0.60023     0.60856     0.59926     0.50628     0.52213    
 0.56167     0.60016     0.60022     0.52130     0.36940     0.22918     0.13381     0.83867E-01 0.67431E-01 0.64495E-01
 0.64178E-01 0.64495E-01 0.67431E-01 0.83867E-01 0.13381     0.22918     0.36940     0.52130     0.60022     0.60016    
 0.56167     0.52213     0.40131     0.42330     0.48500     0.56167     0.60856     0.58014     0.45267     0.29429    
 0.16865     0.88066E-01 0.54423E-01 0.43417E-01 0.40660E-01 0.43417E-01 0.54423E-01 0.88066E-01 0.16865     0.29429    
 0.45267     0.58014     0.60856     0.56167     0.48500     0.42330     0.33377     0.35503     0.42330     0.52213    
 0.59926     0.60332     0.50116     0.34041     0.20052     0.98603E-01 0.52299E-01 0.36920E-01 0.33171E-01 0.36920E-01
 0.52299E-01 0.98603E-01 0.20052     0.34041     0.50116     0.60332     0.59926     0.52213     0.42330     0.35503    
 0.31444     0.33377     0.40131     0.50628     0.59375     0.60886     0.51639     0.35645     0.21279     0.10363    
 0.52497E-01 0.35606E-01 0.31568E-01 0.35606E-01 0.52497E-01 0.10363     0.21279     0.35645     0.51639     0.60886    
 0.59375     0.50628     0.40131     0.33377     0.33377     0.35503     0.42330     0.52213     0.59926     0.60332    
 0.50116     0.34041     0.20052     0.98603E-01 0.52299E-01 0.36920E-01 0.33171E-01 0.36920E-01 0.52299E-01 0.98603E-01
 0.20052     0.34041     0.50116     0.60332     0.59926     0.52213     0.42330     0.35503     0.40131     0.42330    
 0.48500     0.56167     0.60856     0.58014     0.45267     0.29429     0.16865     0.88066E-01 0.54423E-01 0.43417E-01
 0.40660E-01 0.43417E-01 0.54423E-01 0.88066E-01 0.16865     0.29429     0.45267     0.58014     0.60856     0.56167    
 0.48500     0.42330     0.50628     0.52213     0.56167     0.60016     0.60022     0.52130     0.36940     0.22918    
 0.13381     0.83867E-01 0.67431E-01 0.64495E-01 0.64178E-01 0.64495E-01 0.67431E-01 0.83867E-01 0.13381     0.22918    
 0.36940     0.52130     0.60022     0.60016     0.56167     0.52213     0.59375     0.59926     0.60856     0.60023    
 0.54112     0.41285     0.26896     0.16953     0.11625     0.10042     0.10897     0.12356     0.12980     0.12356    
 0.10897     0.10042     0.11625     0.16953     0.26896     0.41285     0.54112     0.60023     0.60856     0.59926    
 0.60886     0.60332     0.58015     0.52130     0.41285     0.28348     0.18711     0.13835     0.13079     0.16017    
 0.21376     0.26204     0.28072     0.26204     0.21376     0.16017     0.13079     0.13835     0.18711     0.28348    
 0.41285     0.52130     0.58015     0.60332     0.51639     0.50116     0.45268     0.36940     0.26896     0.18711    
 0.14545     0.14750     0.19864     0.29707     0.40353     0.47509     0.49928     0.47509     0.40353     0.29707    
 0.19864     0.14750     0.14545     0.18711     0.26896     0.36940     0.45268     0.50116     0.35645     0.34041    
 0.29429     0.22918     0.16953     0.13835     0.14750     0.21233     0.34381     0.49582     0.60349     0.65864    
 0.67516     0.65864     0.60348     0.49582     0.34381     0.21233     0.14750     0.13835     0.16953     0.22918    
 0.29429     0.34041     0.21279     0.20052     0.16865     0.13381     0.11625     0.13079     0.19863     0.34381    
 0.52646     0.66109     0.73221     0.76397     0.77297     0.76397     0.73221     0.66109     0.52646     0.34381    
 0.19863     0.13079     0.11625     0.13381     0.16865     0.20052     0.10363     0.98604E-01 0.88067E-01 0.83867E-01
 0.10042     0.16017     0.29707     0.49582     0.66109     0.75350     0.79719     0.81589     0.82107     0.81589    
 0.79719     0.75350     0.66109     0.49582     0.29707     0.16017     0.10042     0.83867E-01 0.88067E-01 0.98604E-01
 0.52498E-01 0.52300E-01 0.54423E-01 0.67431E-01 0.10897     0.21376     0.40352     0.60348     0.73221     0.79719    
 0.82718     0.83969     0.84304     0.83969     0.82718     0.79719     0.73221     0.60348     0.40352     0.21376    
 0.10897     0.67431E-01 0.54423E-01 0.52300E-01 0.35607E-01 0.36920E-01 0.43418E-01 0.64495E-01 0.12356     0.26204    
 0.47509     0.65864     0.76396     0.81589     0.83969     0.84928     0.85171     0.84928     0.83969     0.81589    
 0.76396     0.65864     0.47509     0.26204     0.12356     0.64495E-01 0.43418E-01 0.36920E-01 0.43655E-01 0.42789E-01
 0.42008E-01 0.47065E-01 0.69229E-01 0.13430     0.28195     0.48583     0.64471     0.73457     0.78068     0.80180    
 0.80776     0.80180     0.78068     0.73457     0.64471     0.48583     0.28195     0.13430     0.69229E-01 0.47065E-01
 0.42008E-01 0.42789E-01 0.47261E-01 0.46261E-01 0.44955E-01 0.48939E-01 0.68985E-01 0.12874     0.26644     0.46556    
 0.62930     0.72443     0.77329     0.79554     0.80180     0.79554     0.77329     0.72443     0.62930     0.46556    
 0.26644     0.12874     0.68985E-01 0.48939E-01 0.44955E-01 0.46261E-01 0.63383E-01 0.61359E-01 0.57083E-01 0.56522E-01
 0.69599E-01 0.11451     0.22379     0.40311     0.57670     0.68825     0.74683     0.77329     0.78068     0.77329    
 0.74683     0.68825     0.57670     0.40311     0.22379     0.11451     0.69599E-01 0.56522E-01 0.57083E-01 0.61359E-01
 0.11197     0.10678     0.93651E-01 0.80663E-01 0.78998E-01 0.10127     0.16896     0.30374     0.47416     0.60991    
 0.68825     0.72443     0.73457     0.72443     0.68825     0.60991     0.47416     0.30374     0.16896     0.10127    
 0.78998E-01 0.80663E-01 0.93651E-01 0.10678     0.21210     0.20274     0.17652     0.14147     0.11266     0.10437    
 0.12815     0.20130     0.33086     0.47416     0.57670     0.62931     0.64471     0.62931     0.57670     0.47416    
 0.33086     0.20130     0.12815     0.10437     0.11266     0.14147     0.17652     0.20274     0.36607     0.35202    
 0.31114     0.24994     0.18462     0.13639     0.11846     0.13723     0.20130     0.30374     0.40312     0.46557    
 0.48583     0.46557     0.40312     0.30374     0.20130     0.13723     0.11846     0.13639     0.18462     0.24994    
 0.31114     0.35202     0.53622     0.52436     0.48430     0.40829     0.30464     0.20732     0.14386     0.11846    
 0.12815     0.16897     0.22379     0.26644     0.28196     0.26644     0.22379     0.16897     0.12815     0.11846    
 0.14386     0.20732     0.30464     0.40829     0.48430     0.52436     0.59351     0.59310     0.58491     0.54848    
 0.45850     0.32446     0.20732     0.13639     0.10437     0.10127     0.11451     0.12874     0.13430     0.12874    
 0.11451     0.10127     0.10437     0.13639     0.20732     0.32446     0.45850     0.54848     0.58491     0.59310    
 0.52898     0.54061     0.56780     0.58727     0.56263     0.45850     0.30464     0.18462     0.11266     0.78998E-01
 0.69599E-01 0.68985E-01 0.69229E-01 0.68985E-01 0.69599E-01 0.78998E-01 0.11266     0.18462     0.30464     0.45850    
 0.56263     0.58727     0.56780     0.54061     0.39918     0.41955     0.47668     0.54723     0.58727     0.54848    
 0.40829     0.24994     0.14147     0.80663E-01 0.56522E-01 0.48939E-01 0.47064E-01 0.48939E-01 0.56522E-01 0.80663E-01
 0.14147     0.24994     0.40829     0.54848     0.58727     0.54723     0.47668     0.41955     0.29784     0.31305    
 0.37355     0.47668     0.56780     0.58490     0.48430     0.31114     0.17652     0.93649E-01 0.57082E-01 0.44954E-01
 0.42008E-01 0.44954E-01 0.57082E-01 0.93649E-01 0.17652     0.31114     0.48430     0.58490     0.56780     0.47668    
 0.37355     0.31305     0.28971     0.28156     0.31305     0.41955     0.54061     0.59310     0.52436     0.35202    
 0.20274     0.10678     0.61358E-01 0.46260E-01 0.42788E-01 0.46260E-01 0.61358E-01 0.10678     0.20274     0.35202    
 0.52436     0.59310     0.54061     0.41955     0.31305     0.28156     0.31823     0.28971     0.29784     0.39918    
 0.52898     0.59351     0.53622     0.36607     0.21210     0.11197     0.63381E-01 0.47259E-01 0.43654E-01 0.47259E-01
 0.63381E-01 0.11197     0.21210     0.36607     0.53622     0.59351     0.52898     0.39918     0.29784     0.28971    
 0.28971     0.28156     0.31305     0.41955     0.54061     0.59310     0.52436     0.35202     0.20274     0.10678    
 0.61358E-01 0.46260E-01 0.42788E-01 0.46260E-01 0.61358E-01 0.10678     0.20274     0.35202     0.52436     0.59310    
 0.54061     0.41955     0.31305     0.28156     0.29784     0.31305     0.37355     0.47668     0.56780     0.58490    
 0.48430     0.31114     0.17652     0.93649E-01 0.57082E-01 0.44954E-01 0.42008E-01 0.44954E-01 0.57082E-01 0.93649E-01
 0.17652     0.31114     0.48430     0.58490     0.56780     0.47668     0.37355     0.31305     0.39918     0.41955    
 0.47668     0.54723     0.58727     0.54848     0.40829     0.24994     0.14147     0.80663E-01 0.56522E-01 0.48939E-01
 0.47064E-01 0.48939E-01 0.56522E-01 0.80663E-01 0.14147     0.24994     0.40829     0.54848     0.58727     0.54723    
 0.47668     0.41955     0.52898     0.54061     0.56780     0.58727     0.56263     0.45850     0.30464     0.18462    
 0.11266     0.78998E-01 0.69599E-01 0.68985E-01 0.69229E-01 0.68985E-01 0.69599E-01 0.78998E-01 0.11266     0.18462    
 0.30464     0.45850     0.56263     0.58727     0.56780     0.54061     0.59351     0.59310     0.58491     0.54848    
 0.45850     0.32446     0.20732     0.13639     0.10437     0.10127     0.11451     0.12874     0.13430     0.12874    
 0.11451     0.10127     0.10437     0.13639     0.20732     0.32446     0.45850     0.54848     0.58491     0.59310    
 0.53622     0.52436     0.48430     0.40829     0.30464     0.20732     0.14386     0.11846     0.12815     0.16897    
 0.22379     0.26644     0.28196     0.26644     0.22379     0.16897     0.12815     0.11846     0.14386     0.20732    
 0.30464     0.40829     0.48430     0.52436     0.36607     0.35202     0.31114     0.24994     0.18462     0.13639    
 0.11846     0.13723     0.20130     0.30374     0.40312     0.46557     0.48583     0.46557     0.40312     0.30374    
 0.20130     0.13723     0.11846     0.13639     0.18462     0.24994     0.31114     0.35202     0.21210     0.20274    
 0.17652     0.14147     0.11266     0.10437     0.12815     0.20130     0.33086     0.47416     0.57670     0.62931    
 0.64471     0.62931     0.57670     0.47416     0.33086     0.20130     0.12815     0.10437     0.11266     0.14147    
 0.17652     0.20274     0.11197     0.10678     0.93651E-01 0.80663E-01 0.78998E-01 0.10127     0.16896     0.30374    
 0.47416     0.60991     0.68825     0.72443     0.73457     0.72443     0.68825     0.60991     0.47416     0.30374    
 0.16896     0.10127     0.78998E-01 0.80663E-01 0.93651E-01 0.10678     0.63383E-01 0.61359E-01 0.57083E-01 0.56522E-01
 0.69599E-01 0.11451     0.22379     0.40311     0.57670     0.68825     0.74683     0.77329     0.78068     0.77329    
 0.74683     0.68825     0.57670     0.40311     0.22379     0.11451     0.69599E-01 0.56522E-01 0.57083E-01 0.61359E-01
 0.47261E-01 0.46261E-01 0.44955E-01 0.48939E-01 0.68985E-01 0.12874     0.26644     0.46556     0.62930     0.72443    
 0.77329     0.79554     0.80180     0.79554     0.77329     0.72443     0.62930     0.46556     0.26644     0.12874    
 0.68985E-01 0.48939E-01 0.44955E-01 0.46261E-01 0.78225E-01 0.73149E-01 0.61414E-01 0.51122E-01 0.49937E-01 0.66158E-01
 0.11999     0.24505     0.42177     0.56524     0.65061     0.69431     0.70775     0.69431     0.65061     0.56524    
 0.42177     0.24505     0.11999     0.66158E-01 0.49937E-01 0.51122E-01 0.61414E-01 0.73149E-01 0.78287E-01 0.73777E-01
 0.63003E-01 0.52947E-01 0.51173E-01 0.65994E-01 0.11615     0.23324     0.40334     0.54724     0.63518     0.68043    
 0.69431     0.68043     0.63518     0.54724     0.40334     0.23324     0.11615     0.65994E-01 0.51173E-01 0.52947E-01
 0.63003E-01 0.73777E-01 0.86003E-01 0.82006E-01 0.71764E-01 0.60577E-01 0.55846E-01 0.65784E-01 0.10519     0.19939    
 0.34711     0.48913     0.58466     0.63518     0.65061     0.63518     0.58466     0.48913     0.34711     0.19939    
 0.10519     0.65784E-01 0.55846E-01 0.60577E-01 0.71764E-01 0.82006E-01 0.12031     0.11553     0.10221     0.84448E-01
 0.70417E-01 0.69436E-01 0.91701E-01 0.15307     0.26138     0.38779     0.48913     0.54725     0.56524     0.54725    
 0.48913     0.38779     0.26138     0.15307     0.91701E-01 0.69436E-01 0.70417E-01 0.84448E-01 0.10221     0.11553    
 0.19866     0.19183     0.17197     0.14179     0.10939     0.87742E-01 0.86707E-01 0.11332     0.17401     0.26139    
 0.34712     0.40334     0.42177     0.40334     0.34712     0.26139     0.17401     0.11332     0.86707E-01 0.87742E-01
 0.10939     0.14179     0.17197     0.19183     0.35189     0.33932     0.30294     0.24847     0.18743     0.13437    
 0.10184     0.94866E-01 0.11332     0.15307     0.19939     0.23325     0.24505     0.23325     0.19939     0.15307    
 0.11332     0.94866E-01 0.10184     0.13437     0.18743     0.24847     0.30294     0.33932     0.52676     0.51699    
 0.48292     0.41520     0.31769     0.21921     0.14517     0.10184     0.86707E-01 0.91701E-01 0.10519     0.11615    
 0.11999     0.11615     0.10519     0.91701E-01 0.86707E-01 0.10184     0.14517     0.21921     0.31769     0.41520    
 0.48292     0.51699     0.56136     0.56420     0.56557     0.54447     0.47203     0.34493     0.21921     0.13437    
 0.87742E-01 0.69435E-01 0.65784E-01 0.65994E-01 0.66158E-01 0.65994E-01 0.65784E-01 0.69435E-01 0.87742E-01 0.13437    
 0.21921     0.34493     0.47203     0.54447     0.56557     0.56420     0.46354     0.47917     0.51856     0.55712    
 0.55577     0.47203     0.31769     0.18743     0.10939     0.70416E-01 0.55846E-01 0.51173E-01 0.49936E-01 0.51173E-01
 0.55846E-01 0.70416E-01 0.10939     0.18743     0.31769     0.47203     0.55577     0.55712     0.51856     0.47917    
 0.31789     0.33765     0.40025     0.49010     0.55712     0.54447     0.41520     0.24847     0.14179     0.84447E-01
 0.60576E-01 0.52946E-01 0.51120E-01 0.52946E-01 0.60576E-01 0.84447E-01 0.14179     0.24847     0.41520     0.54447    
 0.55712     0.49010     0.40025     0.33765     0.26295     0.25920     0.29476     0.40025     0.51855     0.56557    
 0.48292     0.30294     0.17197     0.10221     0.71762E-01 0.63001E-01 0.61412E-01 0.63001E-01 0.71762E-01 0.10221    
 0.17197     0.30294     0.48292     0.56557     0.51855     0.40025     0.29476     0.25920     0.44908     0.33145    
 0.25920     0.33765     0.47917     0.56419     0.51699     0.33932     0.19183     0.11552     0.82003E-01 0.73774E-01
 0.73146E-01 0.73774E-01 0.82003E-01 0.11552     0.19183     0.33932     0.51699     0.56419     0.47917     0.33765    
 0.25920     0.33145     0.70916     0.44908     0.26295     0.31789     0.46354     0.56136     0.52676     0.35189    
 0.19866     0.12030     0.86000E-01 0.78285E-01 0.78222E-01 0.78285E-01 0.86000E-01 0.12030     0.19866     0.35189    
 0.52676     0.56136     0.46354     0.31789     0.26295     0.44908     0.44908     0.33145     0.25920     0.33765    
 0.47917     0.56419     0.51699     0.33932     0.19183     0.11552     0.82003E-01 0.73774E-01 0.73146E-01 0.73774E-01
 0.82003E-01 0.11552     0.19183     0.33932     0.51699     0.56419     0.47917     0.33765     0.25920     0.33145    
 0.26295     0.25920     0.29476     0.40025     0.51855     0.56557     0.48292     0.30294     0.17197     0.10221    
 0.71762E-01 0.63001E-01 0.61412E-01 0.63001E-01 0.71762E-01 0.10221     0.17197     0.30294     0.48292     0.56557    
 0.51855     0.40025     0.29476     0.25920     0.31789     0.33765     0.40025     0.49010     0.55712     0.54447    
 0.41520     0.24847     0.14179     0.84447E-01 0.60576E-01 0.52946E-01 0.51120E-01 0.52946E-01 0.60576E-01 0.84447E-01
 0.14179     0.24847     0.41520     0.54447     0.55712     0.49010     0.40025     0.33765     0.46354     0.47917    
 0.51856     0.55712     0.55577     0.47203     0.31769     0.18743     0.10939     0.70416E-01 0.55846E-01 0.51173E-01
 0.49936E-01 0.51173E-01 0.55846E-01 0.70416E-01 0.10939     0.18743     0.31769     0.47203     0.55577     0.55712    
 0.51856     0.47917     0.56136     0.56420     0.56557     0.54447     0.47203     0.34493     0.21921     0.13437    
 0.87742E-01 0.69435E-01 0.65784E-01 0.65994E-01 0.66158E-01 0.65994E-01 0.65784E-01 0.69435E-01 0.87742E-01 0.13437    
 0.21921     0.34493     0.47203     0.54447     0.56557     0.56420     0.52676     0.51699     0.48292     0.41520    
 0.31769     0.21921     0.14517     0.10184     0.86707E-01 0.91701E-01 0.10519     0.11615     0.11999     0.11615    
 0.10519     0.91701E-01 0.86707E-01 0.10184     0.14517     0.21921     0.31769     0.41520     0.48292     0.51699    
 0.35189     0.33932     0.30294     0.24847     0.18743     0.13437     0.10184     0.94866E-01 0.11332     0.15307    
 0.19939     0.23325     0.24505     0.23325     0.19939     0.15307     0.11332     0.94866E-01 0.10184     0.13437    
 0.18743     0.24847     0.30294     0.33932     0.19866     0.19183     0.17197     0.14179     0.10939     0.87742E-01
 0.86707E-01 0.11332     0.17401     0.26139     0.34712     0.40334     0.42177     0.40334     0.34712     0.26139    
 0.17401     0.11332     0.86707E-01 0.87742E-01 0.10939     0.14179     0.17197     0.19183     0.12031     0.11553    
 0.10221     0.84448E-01 0.70417E-01 0.69436E-01 0.91701E-01 0.15307     0.26138     0.38779     0.48913     0.54725    
 0.56524     0.54725     0.48913     0.38779     0.26138     0.15307     0.91701E-01 0.69436E-01 0.70417E-01 0.84448E-01
 0.10221     0.11553     0.86003E-01 0.82006E-01 0.71764E-01 0.60577E-01 0.55846E-01 0.65784E-01 0.10519     0.19939    
 0.34711     0.48913     0.58466     0.63518     0.65061     0.63518     0.58466     0.48913     0.34711     0.19939    
 0.10519     0.65784E-01 0.55846E-01 0.60577E-01 0.71764E-01 0.82006E-01 0.78287E-01 0.73777E-01 0.63003E-01 0.52947E-01
 0.51173E-01 0.65994E-01 0.11615     0.23324     0.40334     0.54724     0.63518     0.68043     0.69431     0.68043    
 0.63518     0.54724     0.40334     0.23324     0.11615     0.65994E-01 0.51173E-01 0.52947E-01 0.63003E-01 0.73777E-01
 0.17230     0.15828     0.12323     0.84523E-01 0.58171E-01 0.48935E-01 0.57741E-01 0.95547E-01 0.18443     0.31197    
 0.42032     0.48762     0.51144     0.48762     0.42032     0.31197     0.18443     0.95547E-01 0.57741E-01 0.48935E-01
 0.58171E-01 0.84523E-01 0.12323     0.15828     0.15932     0.14749     0.11755     0.83449E-01 0.59018E-01 0.49739E-01
 0.57452E-01 0.92404E-01 0.17472     0.29411     0.39812     0.46409     0.48762     0.46409     0.39812     0.29411    
 0.17472     0.92404E-01 0.57452E-01 0.49739E-01 0.59018E-01 0.83449E-01 0.11755     0.14749     0.13725     0.12943    
 0.10898     0.83563E-01 0.62437E-01 0.52177E-01 0.56620E-01 0.84112E-01 0.14930     0.24627     0.33700     0.39812    
 0.42032     0.39812     0.33700     0.24627     0.14930     0.84112E-01 0.56620E-01 0.52177E-01 0.62437E-01 0.83563E-01
 0.10898     0.12943     0.13726     0.13223     0.11790     0.96780E-01 0.74429E-01 0.59009E-01 0.56989E-01 0.74018E-01
 0.11681     0.18105     0.24627     0.29411     0.31197     0.29411     0.24627     0.18105     0.11681     0.74018E-01
 0.56989E-01 0.59009E-01 0.74429E-01 0.96780E-01 0.11790     0.13223     0.18038     0.17563     0.16142     0.13791    
 0.10766     0.79704E-01 0.64748E-01 0.67155E-01 0.86360E-01 0.11681     0.14930     0.17472     0.18444     0.17472    
 0.14930     0.11681     0.86360E-01 0.67155E-01 0.64748E-01 0.79704E-01 0.10766     0.13791     0.16142     0.17563    
 0.31543     0.30445     0.27322     0.22756     0.17630     0.12747     0.89763E-01 0.70199E-01 0.67155E-01 0.74018E-01
 0.84113E-01 0.92404E-01 0.95548E-01 0.92404E-01 0.84113E-01 0.74018E-01 0.67155E-01 0.70199E-01 0.89763E-01 0.12747    
 0.17630     0.22756     0.27322     0.30445     0.49849     0.48870     0.45523     0.39084     0.30120     0.21143    
 0.13934     0.89763E-01 0.64748E-01 0.56988E-01 0.56620E-01 0.57451E-01 0.57740E-01 0.57451E-01 0.56620E-01 0.56988E-01
 0.64748E-01 0.89763E-01 0.13934     0.21143     0.30120     0.39084     0.45523     0.48870     0.53256     0.53611    
 0.53960     0.52222     0.45536     0.33397     0.21143     0.12747     0.79703E-01 0.59008E-01 0.52176E-01 0.49738E-01
 0.48934E-01 0.49738E-01 0.52176E-01 0.59008E-01 0.79703E-01 0.12747     0.21143     0.33397     0.45536     0.52222    
 0.53960     0.53611     0.42366     0.44063     0.48428     0.52950     0.53506     0.45536     0.30119     0.17630    
 0.10766     0.74428E-01 0.62435E-01 0.59016E-01 0.58169E-01 0.59016E-01 0.62435E-01 0.74428E-01 0.10766     0.17630    
 0.30119     0.45536     0.53506     0.52950     0.48428     0.44063     0.27588     0.29476     0.35774     0.45352    
 0.52950     0.52222     0.39084     0.22756     0.13791     0.96777E-01 0.83560E-01 0.83446E-01 0.84520E-01 0.83446E-01
 0.83560E-01 0.96777E-01 0.13791     0.22756     0.39084     0.52222     0.52950     0.45352     0.35774     0.29476    
 0.24687     0.23292     0.25538     0.35774     0.48428     0.53960     0.45523     0.27322     0.16141     0.11790    
 0.10897     0.11755     0.12323     0.11755     0.10897     0.11790     0.16141     0.27322     0.45523     0.53960    
 0.48428     0.35774     0.25538     0.23292     0.60973     0.38016     0.23292     0.29475     0.44063     0.53611    
 0.48870     0.30445     0.17562     0.13222     0.12942     0.14748     0.15827     0.14748     0.12942     0.13222    
 0.17562     0.30445     0.48870     0.53611     0.44063     0.29475     0.23292     0.38016     0.97630     0.60973    
 0.24687     0.27588     0.42365     0.53256     0.49849     0.31543     0.18038     0.13726     0.13724     0.15931    
 0.17229     0.15931     0.13724     0.13726     0.18038     0.31543     0.49849     0.53256     0.42365     0.27588    
 0.24687     0.60973     0.60973     0.38016     0.23292     0.29475     0.44063     0.53611     0.48870     0.30445    
 0.17562     0.13222     0.12942     0.14748     0.15827     0.14748     0.12942     0.13222     0.17562     0.30445    
 0.48870     0.53611     0.44063     0.29475     0.23292     0.38016     0.24687     0.23292     0.25538     0.35774    
 0.48428     0.53960     0.45523     0.27322     0.16141     0.11790     0.10897     0.11755     0.12323     0.11755    
 0.10897     0.11790     0.16141     0.27322     0.45523     0.53960     0.48428     0.35774     0.25538     0.23292    
 0.27588     0.29476     0.35774     0.45352     0.52950     0.52222     0.39084     0.22756     0.13791     0.96777E-01
 0.83560E-01 0.83446E-01 0.84520E-01 0.83446E-01 0.83560E-01 0.96777E-01 0.13791     0.22756     0.39084     0.52222    
 0.52950     0.45352     0.35774     0.29476     0.42366     0.44063     0.48428     0.52950     0.53506     0.45536    
 0.30119     0.17630     0.10766     0.74428E-01 0.62435E-01 0.59016E-01 0.58169E-01 0.59016E-01 0.62435E-01 0.74428E-01
 0.10766     0.17630     0.30119     0.45536     0.53506     0.52950     0.48428     0.44063     0.53256     0.53611    
 0.53960     0.52222     0.45536     0.33397     0.21143     0.12747     0.79703E-01 0.59008E-01 0.52176E-01 0.49738E-01
 0.48934E-01 0.49738E-01 0.52176E-01 0.59008E-01 0.79703E-01 0.12747     0.21143     0.33397     0.45536     0.52222    
 0.53960     0.53611     0.49849     0.48870     0.45523     0.39084     0.30120     0.21143     0.13934     0.89763E-01
 0.64748E-01 0.56988E-01 0.56620E-01 0.57451E-01 0.57740E-01 0.57451E-01 0.56620E-01 0.56988E-01 0.64748E-01 0.89763E-01
 0.13934     0.21143     0.30120     0.39084     0.45523     0.48870     0.31543     0.30445     0.27322     0.22756    
 0.17630     0.12747     0.89763E-01 0.70199E-01 0.67155E-01 0.74018E-01 0.84113E-01 0.92404E-01 0.95548E-01 0.92404E-01
 0.84113E-01 0.74018E-01 0.67155E-01 0.70199E-01 0.89763E-01 0.12747     0.17630     0.22756     0.27322     0.30445    
 0.18038     0.17563     0.16142     0.13791     0.10766     0.79704E-01 0.64748E-01 0.67155E-01 0.86360E-01 0.11681    
 0.14930     0.17472     0.18444     0.17472     0.14930     0.11681     0.86360E-01 0.67155E-01 0.64748E-01 0.79704E-01
 0.10766     0.13791     0.16142     0.17563     0.13726     0.13223     0.11790     0.96780E-01 0.74429E-01 0.59009E-01
 0.56989E-01 0.74018E-01 0.11681     0.18105     0.24627     0.29411     0.31197     0.29411     0.24627     0.18105    
 0.11681     0.74018E-01 0.56989E-01 0.59009E-01 0.74429E-01 0.96780E-01 0.11790     0.13223     0.13725     0.12943    
 0.10898     0.83563E-01 0.62437E-01 0.52177E-01 0.56620E-01 0.84112E-01 0.14930     0.24627     0.33700     0.39812    
 0.42032     0.39812     0.33700     0.24627     0.14930     0.84112E-01 0.56620E-01 0.52177E-01 0.62437E-01 0.83563E-01
 0.10898     0.12943     0.15932     0.14749     0.11755     0.83449E-01 0.59018E-01 0.49739E-01 0.57452E-01 0.92404E-01
 0.17472     0.29411     0.39812     0.46409     0.48762     0.46409     0.39812     0.29411     0.17472     0.92404E-01
 0.57452E-01 0.49739E-01 0.59018E-01 0.83449E-01 0.11755     0.14749     0.38045     0.35681     0.28945     0.19552    
 0.11149     0.63474E-01 0.45901E-01 0.47419E-01 0.68555E-01 0.11679     0.17972     0.22786     0.24586     0.22786    
 0.17972     0.11679     0.68555E-01 0.47419E-01 0.45901E-01 0.63474E-01 0.11149     0.19552     0.28945     0.35681    
 0.34843     0.32682     0.26611     0.18271     0.10758     0.63114E-01 0.45890E-01 0.46647E-01 0.66066E-01 0.11044    
 0.16763     0.21138     0.22786     0.21138     0.16763     0.11044     0.66066E-01 0.46647E-01 0.45890E-01 0.63114E-01
 0.10758     0.18271     0.26611     0.32682     0.26942     0.25374     0.21070     0.15253     0.98198E-01 0.62454E-01
 0.46236E-01 0.45249E-01 0.60385E-01 0.94421E-01 0.13610     0.16763     0.17972     0.16763     0.13610     0.94421E-01
 0.60385E-01 0.45249E-01 0.46236E-01 0.62454E-01 0.98198E-01 0.15253     0.21070     0.25374     0.19745     0.18889    
 0.16479     0.13020     0.93836E-01 0.64981E-01 0.48422E-01 0.44591E-01 0.53506E-01 0.73001E-01 0.94422E-01 0.11044    
 0.11679     0.11044     0.94422E-01 0.73001E-01 0.53506E-01 0.44591E-01 0.48422E-01 0.64981E-01 0.93836E-01 0.13020    
 0.16479     0.18889     0.17709     0.17251     0.15907     0.13753     0.10941     0.79591E-01 0.56694E-01 0.46324E-01
 0.47108E-01 0.53506E-01 0.60385E-01 0.66066E-01 0.68556E-01 0.66066E-01 0.60385E-01 0.53506E-01 0.47108E-01 0.46324E-01
 0.56694E-01 0.79591E-01 0.10941     0.13753     0.15907     0.17251     0.26217     0.25337     0.22925     0.19550    
 0.15726     0.11648     0.79134E-01 0.55554E-01 0.46324E-01 0.44591E-01 0.45248E-01 0.46646E-01 0.47418E-01 0.46646E-01
 0.45248E-01 0.44591E-01 0.46323E-01 0.55554E-01 0.79134E-01 0.11648     0.15726     0.19550     0.22925     0.25337    
 0.45184     0.44043     0.40404     0.34084     0.26061     0.18407     0.12233     0.79133E-01 0.56694E-01 0.48421E-01
 0.46235E-01 0.45889E-01 0.45900E-01 0.45889E-01 0.46235E-01 0.48421E-01 0.56694E-01 0.79133E-01 0.12233     0.18407    
 0.26061     0.34084     0.40404     0.44043     0.51663     0.51785     0.51474     0.48754     0.41146     0.29167    
 0.18407     0.11648     0.79589E-01 0.64979E-01 0.62452E-01 0.63112E-01 0.63472E-01 0.63112E-01 0.62452E-01 0.64979E-01
 0.79589E-01 0.11648     0.18407     0.29167     0.41146     0.48754     0.51474     0.51785     0.42274     0.43817    
 0.47675     0.51306     0.50561     0.41146     0.26061     0.15726     0.10941     0.93833E-01 0.98195E-01 0.10758    
 0.11148     0.10758     0.98195E-01 0.93833E-01 0.10941     0.15726     0.26061     0.41146     0.50561     0.51306    
 0.47675     0.43817     0.27524     0.29561     0.35892     0.44877     0.51306     0.48754     0.34084     0.19550    
 0.13752     0.13020     0.15252     0.18271     0.19552     0.18271     0.15252     0.13020     0.13752     0.19550    
 0.34084     0.48754     0.51306     0.44877     0.35892     0.29561     0.20982     0.21140     0.25251     0.35892    
 0.47675     0.51474     0.40404     0.22925     0.15907     0.16478     0.21069     0.26610     0.28944     0.26610    
 0.21069     0.16478     0.15907     0.22925     0.40404     0.51474     0.47675     0.35892     0.25251     0.21140    
 0.34022     0.25374     0.21140     0.29561     0.43817     0.51785     0.44043     0.25337     0.17250     0.18888    
 0.25373     0.32682     0.35681     0.32682     0.25373     0.18888     0.17250     0.25337     0.44043     0.51785    
 0.43817     0.29561     0.21140     0.25374     0.56107     0.34022     0.20982     0.27524     0.42274     0.51663    
 0.45184     0.26216     0.17709     0.19744     0.26942     0.34843     0.38044     0.34843     0.26942     0.19744    
 0.17709     0.26216     0.45184     0.51663     0.42274     0.27524     0.20982     0.34022     0.34022     0.25374    
 0.21140     0.29561     0.43817     0.51785     0.44043     0.25337     0.17250     0.18888     0.25373     0.32682    
 0.35681     0.32682     0.25373     0.18888     0.17250     0.25337     0.44043     0.51785     0.43817     0.29561    
 0.21140     0.25374     0.20982     0.21140     0.25251     0.35892     0.47675     0.51474     0.40404     0.22925    
 0.15907     0.16478     0.21069     0.26610     0.28944     0.26610     0.21069     0.16478     0.15907     0.22925    
 0.40404     0.51474     0.47675     0.35892     0.25251     0.21140     0.27524     0.29561     0.35892     0.44877    
 0.51306     0.48754     0.34084     0.19550     0.13752     0.13020     0.15252     0.18271     0.19552     0.18271    
 0.15252     0.13020     0.13752     0.19550     0.34084     0.48754     0.51306     0.44877     0.35892     0.29561    
 0.42274     0.43817     0.47675     0.51306     0.50561     0.41146     0.26061     0.15726     0.10941     0.93833E-01
 0.98195E-01 0.10758     0.11148     0.10758     0.98195E-01 0.93833E-01 0.10941     0.15726     0.26061     0.41146    
 0.50561     0.51306     0.47675     0.43817     0.51663     0.51785     0.51474     0.48754     0.41146     0.29167    
 0.18407     0.11648     0.79589E-01 0.64979E-01 0.62452E-01 0.63112E-01 0.63472E-01 0.63112E-01 0.62452E-01 0.64979E-01
 0.79589E-01 0.11648     0.18407     0.29167     0.41146     0.48754     0.51474     0.51785     0.45184     0.44043    
 0.40404     0.34084     0.26061     0.18407     0.12233     0.79133E-01 0.56694E-01 0.48421E-01 0.46235E-01 0.45889E-01
 0.45900E-01 0.45889E-01 0.46235E-01 0.48421E-01 0.56694E-01 0.79133E-01 0.12233     0.18407     0.26061     0.34084    
 0.40404     0.44043     0.26217     0.25337     0.22925     0.19550     0.15726     0.11648     0.79134E-01 0.55554E-01
 0.46323E-01 0.44591E-01 0.45248E-01 0.46646E-01 0.47418E-01 0.46646E-01 0.45248E-01 0.44591E-01 0.46323E-01 0.55554E-01
 0.79134E-01 0.11648     0.15726     0.19550     0.22925     0.25337     0.17709     0.17251     0.15907     0.13753    
 0.10941     0.79591E-01 0.56694E-01 0.46324E-01 0.47108E-01 0.53506E-01 0.60385E-01 0.66066E-01 0.68556E-01 0.66066E-01
 0.60385E-01 0.53506E-01 0.47108E-01 0.46324E-01 0.56694E-01 0.79591E-01 0.10941     0.13753     0.15907     0.17251    
 0.19745     0.18889     0.16479     0.13020     0.93836E-01 0.64981E-01 0.48422E-01 0.44591E-01 0.53506E-01 0.73001E-01
 0.94422E-01 0.11044     0.11679     0.11044     0.94422E-01 0.73001E-01 0.53506E-01 0.44591E-01 0.48422E-01 0.64981E-01
 0.93836E-01 0.13020     0.16479     0.18889     0.26942     0.25374     0.21070     0.15253     0.98198E-01 0.62454E-01
 0.46236E-01 0.45249E-01 0.60385E-01 0.94421E-01 0.13610     0.16763     0.17972     0.16763     0.13610     0.94421E-01
 0.60385E-01 0.45249E-01 0.46236E-01 0.62454E-01 0.98198E-01 0.15253     0.21070     0.25374     0.34843     0.32682    
 0.26611     0.18271     0.10758     0.63114E-01 0.45890E-01 0.46647E-01 0.66066E-01 0.11044     0.16763     0.21138    
 0.22786     0.21138     0.16763     0.11044     0.66066E-01 0.46647E-01 0.45890E-01 0.63114E-01 0.10758     0.18271    
 0.26611     0.32682     0.61044     0.58891     0.52231     0.40859     0.26167     0.13347     0.65990E-01 0.41895E-01
 0.37124E-01 0.44845E-01 0.62299E-01 0.77363E-01 0.82079E-01 0.77363E-01 0.62299E-01 0.44845E-01 0.37124E-01 0.41895E-01
 0.65990E-01 0.13347     0.26167     0.40859     0.52231     0.58891     0.58218     0.56041     0.49424     0.38403    
 0.24530     0.12666     0.64106E-01 0.41217E-01 0.36538E-01 0.43887E-01 0.59984E-01 0.73304E-01 0.77363E-01 0.73304E-01
 0.59984E-01 0.43887E-01 0.36538E-01 0.41217E-01 0.64106E-01 0.12666     0.24530     0.38403     0.49424     0.56041    
 0.48881     0.46810     0.40727     0.31173     0.20012     0.10938     0.60093E-01 0.40092E-01 0.35172E-01 0.40588E-01
 0.51803E-01 0.59984E-01 0.62299E-01 0.59984E-01 0.51803E-01 0.40588E-01 0.35172E-01 0.40092E-01 0.60093E-01 0.10938    
 0.20012     0.31173     0.40727     0.46810     0.34504     0.33005     0.28659     0.22109     0.14943     0.91901E-01
 0.56812E-01 0.39331E-01 0.33489E-01 0.35572E-01 0.40588E-01 0.43887E-01 0.44845E-01 0.43887E-01 0.40588E-01 0.35572E-01
 0.33489E-01 0.39331E-01 0.56812E-01 0.91901E-01 0.14943     0.22109     0.28659     0.33005     0.22611     0.21868    
 0.19709     0.16408     0.12530     0.87859E-01 0.58175E-01 0.40322E-01 0.33587E-01 0.33489E-01 0.35171E-01 0.36537E-01
 0.37124E-01 0.36537E-01 0.35171E-01 0.33489E-01 0.33587E-01 0.40322E-01 0.58175E-01 0.87859E-01 0.12530     0.16408    
 0.19709     0.21868     0.22194     0.21462     0.19532     0.16955     0.14006     0.10560     0.71175E-01 0.48718E-01
 0.40321E-01 0.39330E-01 0.40091E-01 0.41216E-01 0.41894E-01 0.41216E-01 0.40091E-01 0.39330E-01 0.40321E-01 0.48718E-01
 0.71175E-01 0.10560     0.14006     0.16955     0.19532     0.21462     0.37757     0.36470     0.32749     0.27160    
 0.20841     0.14975     0.10206     0.71174E-01 0.58173E-01 0.56811E-01 0.60091E-01 0.64104E-01 0.65988E-01 0.64104E-01
 0.60091E-01 0.56811E-01 0.58173E-01 0.71174E-01 0.10206     0.14975     0.20841     0.27160     0.32749     0.36470    
 0.50161     0.49758     0.47976     0.43201     0.34106     0.23084     0.14975     0.10560     0.87856E-01 0.91898E-01
 0.10938     0.12665     0.13347     0.12665     0.10938     0.91898E-01 0.87856E-01 0.10560     0.14975     0.23084    
 0.34106     0.43201     0.47976     0.49758     0.45464     0.46509     0.48831     0.49935     0.45911     0.34106    
 0.20841     0.14006     0.12529     0.14942     0.20011     0.24530     0.26167     0.24530     0.20011     0.14942    
 0.12529     0.14006     0.20841     0.34106     0.45911     0.49935     0.48831     0.46509     0.32373     0.34413    
 0.40062     0.46876     0.49935     0.43201     0.27160     0.16955     0.16408     0.22109     0.31173     0.38403    
 0.40858     0.38403     0.31173     0.22109     0.16408     0.16955     0.27160     0.43201     0.49935     0.46876    
 0.40062     0.34413     0.21883     0.23597     0.29787     0.40062     0.48831     0.47976     0.32749     0.19531    
 0.19708     0.28658     0.40726     0.49424     0.52230     0.49424     0.40726     0.28658     0.19708     0.19531    
 0.32749     0.47976     0.48831     0.40062     0.29787     0.23597     0.19270     0.19453     0.23597     0.34412    
 0.46509     0.49758     0.36470     0.21461     0.21867     0.33004     0.46809     0.56041     0.58890     0.56041    
 0.46809     0.33004     0.21867     0.21461     0.36470     0.49758     0.46509     0.34412     0.23597     0.19453    
 0.20319     0.19270     0.21883     0.32373     0.45464     0.50161     0.37757     0.22193     0.22611     0.34503    
 0.48880     0.58218     0.61044     0.58218     0.48880     0.34503     0.22611     0.22193     0.37757     0.50161    
 0.45464     0.32373     0.21883     0.19270     0.19270     0.19453     0.23597     0.34412     0.46509     0.49758    
 0.36470     0.21461     0.21867     0.33004     0.46809     0.56041     0.58890     0.56041     0.46809     0.33004    
 0.21867     0.21461     0.36470     0.49758     0.46509     0.34412     0.23597     0.19453     0.21883     0.23597    
 0.29787     0.40062     0.48831     0.47976     0.32749     0.19531     0.19708     0.28658     0.40726     0.49424    
 0.52230     0.49424     0.40726     0.28658     0.19708     0.19531     0.32749     0.47976     0.48831     0.40062    
 0.29787     0.23597     0.32373     0.34413     0.40062     0.46876     0.49935     0.43201     0.27160     0.16955    
 0.16408     0.22109     0.31173     0.38403     0.40858     0.38403     0.31173     0.22109     0.16408     0.16955    
 0.27160     0.43201     0.49935     0.46876     0.40062     0.34413     0.45464     0.46509     0.48831     0.49935    
 0.45911     0.34106     0.20841     0.14006     0.12529     0.14942     0.20011     0.24530     0.26167     0.24530    
 0.20011     0.14942     0.12529     0.14006     0.20841     0.34106     0.45911     0.49935     0.48831     0.46509    
 0.50161     0.49758     0.47976     0.43201     0.34106     0.23084     0.14975     0.10560     0.87856E-01 0.91898E-01
 0.10938     0.12665     0.13347     0.12665     0.10938     0.91898E-01 0.87856E-01 0.10560     0.14975     0.23084    
 0.34106     0.43201     0.47976     0.49758     0.37757     0.36470     0.32749     0.27160     0.20841     0.14975    
 0.10206     0.71174E-01 0.58173E-01 0.56811E-01 0.60091E-01 0.64104E-01 0.65988E-01 0.64104E-01 0.60091E-01 0.56811E-01
 0.58173E-01 0.71174E-01 0.10206     0.14975     0.20841     0.27160     0.32749     0.36470     0.22194     0.21462    
 0.19532     0.16955     0.14006     0.10560     0.71175E-01 0.48718E-01 0.40321E-01 0.39330E-01 0.40091E-01 0.41216E-01
 0.41894E-01 0.41216E-01 0.40091E-01 0.39330E-01 0.40321E-01 0.48718E-01 0.71175E-01 0.10560     0.14006     0.16955    
 0.19532     0.21462     0.22611     0.21868     0.19709     0.16408     0.12530     0.87859E-01 0.58175E-01 0.40322E-01
 0.33587E-01 0.33489E-01 0.35171E-01 0.36537E-01 0.37124E-01 0.36537E-01 0.35171E-01 0.33489E-01 0.33587E-01 0.40322E-01
 0.58175E-01 0.87859E-01 0.12530     0.16408     0.19709     0.21868     0.34504     0.33005     0.28659     0.22109    
 0.14943     0.91901E-01 0.56812E-01 0.39331E-01 0.33489E-01 0.35572E-01 0.40588E-01 0.43887E-01 0.44845E-01 0.43887E-01
 0.40588E-01 0.35572E-01 0.33489E-01 0.39331E-01 0.56812E-01 0.91901E-01 0.14943     0.22109     0.28659     0.33005    
 0.48881     0.46810     0.40727     0.31173     0.20012     0.10938     0.60093E-01 0.40092E-01 0.35172E-01 0.40588E-01
 0.51803E-01 0.59984E-01 0.62299E-01 0.59984E-01 0.51803E-01 0.40588E-01 0.35172E-01 0.40092E-01 0.60093E-01 0.10938    
 0.20012     0.31173     0.40727     0.46810     0.58218     0.56041     0.49424     0.38403     0.24530     0.12666    
 0.64106E-01 0.41217E-01 0.36538E-01 0.43887E-01 0.59984E-01 0.73304E-01 0.77363E-01 0.73304E-01 0.59984E-01 0.43887E-01
 0.36538E-01 0.41217E-01 0.64106E-01 0.12666     0.24530     0.38403     0.49424     0.56041     0.77072     0.75686    
 0.70989     0.61681     0.47139     0.29014     0.13674     0.62744E-01 0.36714E-01 0.28785E-01 0.29632E-01 0.32343E-01
 0.32919E-01 0.32343E-01 0.29632E-01 0.28785E-01 0.36714E-01 0.62744E-01 0.13674     0.29014     0.47139     0.61681    
 0.70989     0.75686     0.75773     0.74247     0.69194     0.59534     0.44894     0.27150     0.12785     0.60252E-01
 0.36145E-01 0.28761E-01 0.29643E-01 0.31974E-01 0.32343E-01 0.31974E-01 0.29643E-01 0.28761E-01 0.36145E-01 0.60252E-01
 0.12785     0.27150     0.44894     0.59534     0.69194     0.74247     0.70148     0.68264     0.62362     0.52065    
 0.37771     0.22082     0.10685     0.54234E-01 0.34057E-01 0.27692E-01 0.28310E-01 0.29643E-01 0.29632E-01 0.29643E-01
 0.28310E-01 0.27692E-01 0.34057E-01 0.54234E-01 0.10685     0.22082     0.37771     0.52065     0.62362     0.68264    
 0.56215     0.54193     0.48206     0.38671     0.26878     0.15732     0.83299E-01 0.46911E-01 0.31346E-01 0.26782E-01
 0.27692E-01 0.28761E-01 0.28784E-01 0.28761E-01 0.27692E-01 0.26782E-01 0.31346E-01 0.46911E-01 0.83299E-01 0.15732    
 0.26878     0.38671     0.48206     0.54193     0.35797     0.34467     0.30597     0.24631     0.17608     0.11200    
 0.67207E-01 0.42611E-01 0.32448E-01 0.31345E-01 0.34057E-01 0.36144E-01 0.36713E-01 0.36144E-01 0.34057E-01 0.31345E-01
 0.32448E-01 0.42611E-01 0.67207E-01 0.11200     0.17608     0.24631     0.30597     0.34467     0.23260     0.22482    
 0.20383     0.17433     0.13919     0.10086     0.67471E-01 0.47879E-01 0.42610E-01 0.46909E-01 0.54233E-01 0.60250E-01
 0.62742E-01 0.60250E-01 0.54233E-01 0.46909E-01 0.42610E-01 0.47879E-01 0.67471E-01 0.10086     0.13919     0.17433    
 0.20383     0.22482     0.29006     0.27835     0.24721     0.20588     0.16264     0.12135     0.86834E-01 0.67470E-01
 0.67205E-01 0.83296E-01 0.10684     0.12784     0.13674     0.12784     0.10684     0.83296E-01 0.67205E-01 0.67470E-01
 0.86834E-01 0.12135     0.16264     0.20588     0.24721     0.27835     0.45344     0.44279     0.40781     0.34268    
 0.25401     0.17243     0.12135     0.10086     0.11200     0.15732     0.22082     0.27150     0.29014     0.27150    
 0.22082     0.15732     0.11200     0.10086     0.12135     0.17243     0.25401     0.34268     0.40781     0.44279    
 0.48842     0.49060     0.48927     0.46150     0.37906     0.25401     0.16264     0.13918     0.17607     0.26878    
 0.37770     0.44894     0.47139     0.44894     0.37770     0.26878     0.17607     0.13918     0.16264     0.25401    
 0.37906     0.46150     0.48927     0.49060     0.40823     0.42276     0.45766     0.48573     0.46150     0.34268    
 0.20587     0.17432     0.24630     0.38670     0.52065     0.59534     0.61681     0.59534     0.52065     0.38670    
 0.24630     0.17432     0.20587     0.34268     0.46150     0.48573     0.45766     0.42276     0.30511     0.32624    
 0.38530     0.45766     0.48927     0.40781     0.24721     0.20383     0.30597     0.48205     0.62362     0.69194    
 0.70989     0.69194     0.62362     0.48205     0.30597     0.20383     0.24721     0.40781     0.48927     0.45766    
 0.38530     0.32624     0.23929     0.26015     0.32624     0.42276     0.49060     0.44279     0.27834     0.22481    
 0.34466     0.54192     0.68264     0.74247     0.75686     0.74247     0.68264     0.54192     0.34466     0.22481    
 0.27834     0.44279     0.49060     0.42276     0.32624     0.26015     0.21980     0.23929     0.30511     0.40823    
 0.48841     0.45344     0.29005     0.23259     0.35797     0.56214     0.70148     0.75773     0.77072     0.75773    
 0.70148     0.56214     0.35797     0.23259     0.29005     0.45344     0.48841     0.40823     0.30511     0.23929    
 0.23929     0.26015     0.32624     0.42276     0.49060     0.44279     0.27834     0.22481     0.34466     0.54192    
 0.68264     0.74247     0.75686     0.74247     0.68264     0.54192     0.34466     0.22481     0.27834     0.44279    
 0.49060     0.42276     0.32624     0.26015     0.30511     0.32624     0.38530     0.45766     0.48927     0.40781    
 0.24721     0.20383     0.30597     0.48205     0.62362     0.69194     0.70989     0.69194     0.62362     0.48205    
 0.30597     0.20383     0.24721     0.40781     0.48927     0.45766     0.38530     0.32624     0.40823     0.42276    
 0.45766     0.48573     0.46150     0.34268     0.20587     0.17432     0.24630     0.38670     0.52065     0.59534    
 0.61681     0.59534     0.52065     0.38670     0.24630     0.17432     0.20587     0.34268     0.46150     0.48573    
 0.45766     0.42276     0.48842     0.49060     0.48927     0.46150     0.37906     0.25401     0.16264     0.13918    
 0.17607     0.26878     0.37770     0.44894     0.47139     0.44894     0.37770     0.26878     0.17607     0.13918    
 0.16264     0.25401     0.37906     0.46150     0.48927     0.49060     0.45344     0.44279     0.40781     0.34268    
 0.25401     0.17243     0.12135     0.10086     0.11200     0.15732     0.22082     0.27150     0.29014     0.27150    
 0.22082     0.15732     0.11200     0.10086     0.12135     0.17243     0.25401     0.34268     0.40781     0.44279    
 0.29006     0.27835     0.24721     0.20588     0.16264     0.12135     0.86834E-01 0.67470E-01 0.67205E-01 0.83296E-01
 0.10684     0.12784     0.13674     0.12784     0.10684     0.83296E-01 0.67205E-01 0.67470E-01 0.86834E-01 0.12135    
 0.16264     0.20588     0.24721     0.27835     0.23260     0.22482     0.20383     0.17433     0.13919     0.10086    
 0.67471E-01 0.47879E-01 0.42610E-01 0.46909E-01 0.54233E-01 0.60250E-01 0.62742E-01 0.60250E-01 0.54233E-01 0.46909E-01
 0.42610E-01 0.47879E-01 0.67471E-01 0.10086     0.13919     0.17433     0.20383     0.22482     0.35797     0.34467    
 0.30597     0.24631     0.17608     0.11200     0.67207E-01 0.42611E-01 0.32448E-01 0.31345E-01 0.34057E-01 0.36144E-01
 0.36713E-01 0.36144E-01 0.34057E-01 0.31345E-01 0.32448E-01 0.42611E-01 0.67207E-01 0.11200     0.17608     0.24631    
 0.30597     0.34467     0.56215     0.54193     0.48206     0.38671     0.26878     0.15732     0.83299E-01 0.46911E-01
 0.31346E-01 0.26782E-01 0.27692E-01 0.28761E-01 0.28784E-01 0.28761E-01 0.27692E-01 0.26782E-01 0.31346E-01 0.46911E-01
 0.83299E-01 0.15732     0.26878     0.38671     0.48206     0.54193     0.70148     0.68264     0.62362     0.52065    
 0.37771     0.22082     0.10685     0.54234E-01 0.34057E-01 0.27692E-01 0.28310E-01 0.29643E-01 0.29632E-01 0.29643E-01
 0.28310E-01 0.27692E-01 0.34057E-01 0.54234E-01 0.10685     0.22082     0.37771     0.52065     0.62362     0.68264    
 0.75773     0.74247     0.69194     0.59534     0.44894     0.27150     0.12785     0.60252E-01 0.36145E-01 0.28761E-01
 0.29643E-01 0.31974E-01 0.32343E-01 0.31974E-01 0.29643E-01 0.28761E-01 0.36145E-01 0.60252E-01 0.12785     0.27150    
 0.44894     0.59534     0.69194     0.74247     0.82704     0.82247     0.80243     0.74947     0.63947     0.46745    
 0.26454     0.11526     0.53845E-01 0.32241E-01 0.25333E-01 0.24102E-01 0.23856E-01 0.24102E-01 0.25333E-01 0.32241E-01
 0.53845E-01 0.11526     0.26454     0.46745     0.63947     0.74947     0.80243     0.82247     0.82680     0.82077    
 0.79672     0.73746     0.62031     0.44411     0.24516     0.10746     0.51816E-01 0.31854E-01 0.25549E-01 0.24416E-01
 0.24102E-01 0.24416E-01 0.25549E-01 0.31854E-01 0.51816E-01 0.10746     0.24516     0.44411     0.62031     0.73746    
 0.79672     0.82077     0.81366     0.80344     0.76712     0.68885     0.55467     0.37483     0.19493     0.87058E-01
 0.45023E-01 0.29827E-01 0.25831E-01 0.25549E-01 0.25332E-01 0.25549E-01 0.25831E-01 0.29827E-01 0.45023E-01 0.87058E-01
 0.19493     0.37483     0.55467     0.68885     0.76712     0.80344     0.74584     0.72863     0.67290     0.57176    
 0.42945     0.26649     0.13186     0.63377E-01 0.37553E-01 0.29442E-01 0.29827E-01 0.31853E-01 0.32240E-01 0.31853E-01
 0.29827E-01 0.29442E-01 0.37553E-01 0.63377E-01 0.13186     0.26649     0.42945     0.57176     0.67290     0.72863    
 0.55685     0.53694     0.47861     0.38706     0.27293     0.16046     0.84325E-01 0.49386E-01 0.37336E-01 0.37553E-01
 0.45021E-01 0.51814E-01 0.53843E-01 0.51814E-01 0.45021E-01 0.37553E-01 0.37336E-01 0.49386E-01 0.84325E-01 0.16046    
 0.27293     0.38706     0.47861     0.53694     0.31825     0.30693     0.27507     0.22629     0.16559     0.10719    
 0.68083E-01 0.50438E-01 0.49384E-01 0.63375E-01 0.87055E-01 0.10746     0.11525     0.10746     0.87055E-01 0.63375E-01
 0.49384E-01 0.50438E-01 0.68083E-01 0.10719     0.16559     0.22629     0.27507     0.30693     0.23969     0.23052    
 0.20640     0.17403     0.13841     0.10371     0.77389E-01 0.68081E-01 0.84322E-01 0.13185     0.19493     0.24516    
 0.26453     0.24515     0.19493     0.13185     0.84322E-01 0.68081E-01 0.77389E-01 0.10371     0.13841     0.17403    
 0.20640     0.23052     0.34886     0.33540     0.29654     0.23914     0.17863     0.13102     0.10371     0.10719    
 0.16046     0.26649     0.37483     0.44411     0.46744     0.44411     0.37483     0.26649     0.16046     0.10719    
 0.10371     0.13102     0.17863     0.23914     0.29654     0.33540     0.47274     0.46500     0.43519     0.36948    
 0.27014     0.17863     0.13841     0.16558     0.27292     0.42945     0.55467     0.62031     0.63947     0.62031    
 0.55467     0.42945     0.27292     0.16558     0.13841     0.17863     0.27014     0.36948     0.43519     0.46500    
 0.47639     0.48003     0.48179     0.45603     0.36947     0.23913     0.17403     0.22628     0.38705     0.57175    
 0.68885     0.73746     0.74947     0.73746     0.68885     0.57175     0.38705     0.22628     0.17403     0.23913    
 0.36947     0.45603     0.48179     0.48003     0.42210     0.43505     0.46458     0.48179     0.43519     0.29654    
 0.20639     0.27506     0.47860     0.67290     0.76712     0.79672     0.80243     0.79672     0.76712     0.67290    
 0.47860     0.27506     0.20639     0.29654     0.43519     0.48179     0.46458     0.43505     0.37035     0.38859    
 0.43505     0.48003     0.46500     0.33540     0.23051     0.30692     0.53694     0.72863     0.80344     0.82077    
 0.82247     0.82077     0.80344     0.72863     0.53694     0.30692     0.23051     0.33540     0.46500     0.48003    
 0.43505     0.38859     0.35062     0.37035     0.42209     0.47638     0.47274     0.34886     0.23968     0.31824    
 0.55685     0.74584     0.81366     0.82680     0.82704     0.82680     0.81366     0.74584     0.55685     0.31824    
 0.23968     0.34886     0.47274     0.47638     0.42209     0.37035     0.37035     0.38859     0.43505     0.48003    
 0.46500     0.33540     0.23051     0.30692     0.53694     0.72863     0.80344     0.82077     0.82247     0.82077    
 0.80344     0.72863     0.53694     0.30692     0.23051     0.33540     0.46500     0.48003     0.43505     0.38859    
 0.42210     0.43505     0.46458     0.48179     0.43519     0.29654     0.20639     0.27506     0.47860     0.67290    
 0.76712     0.79672     0.80243     0.79672     0.76712     0.67290     0.47860     0.27506     0.20639     0.29654    
 0.43519     0.48179     0.46458     0.43505     0.47639     0.48003     0.48179     0.45603     0.36947     0.23913    
 0.17403     0.22628     0.38705     0.57175     0.68885     0.73746     0.74947     0.73746     0.68885     0.57175    
 0.38705     0.22628     0.17403     0.23913     0.36947     0.45603     0.48179     0.48003     0.47274     0.46500    
 0.43519     0.36948     0.27014     0.17863     0.13841     0.16558     0.27292     0.42945     0.55467     0.62031    
 0.63947     0.62031     0.55467     0.42945     0.27292     0.16558     0.13841     0.17863     0.27014     0.36948    
 0.43519     0.46500     0.34886     0.33540     0.29654     0.23914     0.17863     0.13102     0.10371     0.10719    
 0.16046     0.26649     0.37483     0.44411     0.46744     0.44411     0.37483     0.26649     0.16046     0.10719    
 0.10371     0.13102     0.17863     0.23914     0.29654     0.33540     0.23969     0.23052     0.20640     0.17403    
 0.13841     0.10371     0.77389E-01 0.68081E-01 0.84322E-01 0.13185     0.19493     0.24515     0.26453     0.24516    
 0.19493     0.13185     0.84322E-01 0.68081E-01 0.77389E-01 0.10371     0.13841     0.17403     0.20640     0.23052    
 0.31825     0.30693     0.27507     0.22629     0.16559     0.10719     0.68083E-01 0.50438E-01 0.49384E-01 0.63375E-01
 0.87055E-01 0.10746     0.11525     0.10746     0.87055E-01 0.63375E-01 0.49384E-01 0.50438E-01 0.68083E-01 0.10719    
 0.16559     0.22629     0.27507     0.30693     0.55685     0.53694     0.47861     0.38706     0.27293     0.16046    
 0.84325E-01 0.49386E-01 0.37336E-01 0.37553E-01 0.45021E-01 0.51814E-01 0.53843E-01 0.51814E-01 0.45021E-01 0.37553E-01
 0.37336E-01 0.49386E-01 0.84325E-01 0.16046     0.27293     0.38706     0.47861     0.53694     0.74584     0.72863    
 0.67290     0.57176     0.42945     0.26649     0.13186     0.63377E-01 0.37553E-01 0.29442E-01 0.29827E-01 0.31853E-01
 0.32240E-01 0.31853E-01 0.29827E-01 0.29442E-01 0.37553E-01 0.63377E-01 0.13186     0.26649     0.42945     0.57176    
 0.67290     0.72863     0.81366     0.80344     0.76712     0.68885     0.55467     0.37483     0.19493     0.87058E-01
 0.45023E-01 0.29827E-01 0.25831E-01 0.25548E-01 0.25332E-01 0.25549E-01 0.25831E-01 0.29827E-01 0.45023E-01 0.87058E-01
 0.19493     0.37483     0.55467     0.68885     0.76712     0.80344     0.82680     0.82077     0.79672     0.73746    
 0.62031     0.44411     0.24516     0.10746     0.51816E-01 0.31854E-01 0.25549E-01 0.24416E-01 0.24102E-01 0.24416E-01
 0.25549E-01 0.31854E-01 0.51816E-01 0.10746     0.24516     0.44411     0.62031     0.73746     0.79672     0.82077    
 0.80056     0.80942     0.82035     0.80597     0.74071     0.59912     0.39318     0.18922     0.83307E-01 0.46300E-01
 0.33360E-01 0.30243E-01 0.30158E-01 0.30243E-01 0.33360E-01 0.46300E-01 0.83307E-01 0.18922     0.39318     0.59912    
 0.74071     0.80597     0.82035     0.80942     0.81478     0.82017     0.82381     0.80177     0.72743     0.57683    
 0.36867     0.17431     0.78251E-01 0.44629E-01 0.32974E-01 0.30347E-01 0.30243E-01 0.30347E-01 0.32974E-01 0.44629E-01
 0.78251E-01 0.17431     0.36867     0.57683     0.72743     0.80177     0.82381     0.82017     0.83654     0.83496    
 0.82238     0.77945     0.67876     0.50761     0.29773     0.13287     0.63112E-01 0.39793E-01 0.33100E-01 0.32974E-01
 0.33359E-01 0.32974E-01 0.33100E-01 0.39793E-01 0.63112E-01 0.13287     0.29773     0.50761     0.67876     0.77945    
 0.82238     0.83496     0.82730     0.81805     0.78378     0.70671     0.57034     0.38349     0.19439     0.85556E-01
 0.48338E-01 0.38329E-01 0.39792E-01 0.44628E-01 0.46298E-01 0.44628E-01 0.39792E-01 0.38329E-01 0.48338E-01 0.85556E-01
 0.19439     0.38349     0.57034     0.70671     0.78378     0.81805     0.72606     0.70706     0.64663     0.54006    
 0.39206     0.22752     0.10824     0.58455E-01 0.45141E-01 0.48337E-01 0.63110E-01 0.78248E-01 0.83303E-01 0.78248E-01
 0.63110E-01 0.48337E-01 0.45141E-01 0.58455E-01 0.10824     0.22752     0.39206     0.54006     0.64663     0.70706    
 0.47366     0.45554     0.40354     0.32147     0.21781     0.12427     0.71790E-01 0.54112E-01 0.58454E-01 0.85553E-01
 0.13287     0.17431     0.18922     0.17431     0.13287     0.85553E-01 0.58454E-01 0.54112E-01 0.71790E-01 0.12427    
 0.21781     0.32147     0.40354     0.45554     0.26028     0.25107     0.22489     0.18449     0.13633     0.94704E-01
 0.71331E-01 0.71788E-01 0.10823     0.19439     0.29772     0.36867     0.39317     0.36867     0.29772     0.19439    
 0.10823     0.71788E-01 0.71331E-01 0.94704E-01 0.13633     0.18449     0.22489     0.25107     0.24347     0.23372    
 0.20687     0.17034     0.13437     0.10593     0.94702E-01 0.12427     0.22752     0.38349     0.50760     0.57683    
 0.59912     0.57683     0.50760     0.38349     0.22752     0.12427     0.94702E-01 0.10593     0.13437     0.17034    
 0.20687     0.23372     0.36698     0.35326     0.31076     0.24496     0.17800     0.13436     0.13633     0.21781    
 0.39205     0.57034     0.67876     0.72743     0.74071     0.72743     0.67876     0.57034     0.39205     0.21781    
 0.13633     0.13436     0.17800     0.24496     0.31076     0.35326     0.46334     0.45454     0.42033     0.34740    
 0.24496     0.17033     0.18448     0.32146     0.54005     0.70671     0.77945     0.80177     0.80597     0.80177    
 0.77945     0.70671     0.54005     0.32146     0.18448     0.17033     0.24496     0.34740     0.42033     0.45454    
 0.48202     0.48120     0.46931     0.42032     0.31075     0.20686     0.22488     0.40353     0.64663     0.78378    
 0.82238     0.82381     0.82036     0.82381     0.82238     0.78378     0.64663     0.40353     0.22488     0.20686    
 0.31075     0.42032     0.46931     0.48120     0.47223     0.47685     0.48120     0.45453     0.35326     0.23372    
 0.25106     0.45553     0.70706     0.81805     0.83496     0.82017     0.80942     0.82017     0.83496     0.81805    
 0.70706     0.45553     0.25106     0.23372     0.35326     0.45453     0.48120     0.47685     0.46583     0.47223    
 0.48202     0.46334     0.36698     0.24347     0.26027     0.47366     0.72606     0.82730     0.83654     0.81478    
 0.80056     0.81478     0.83654     0.82730     0.72606     0.47366     0.26027     0.24347     0.36698     0.46334    
 0.48202     0.47223     0.47223     0.47685     0.48120     0.45453     0.35326     0.23372     0.25106     0.45553    
 0.70706     0.81805     0.83496     0.82017     0.80942     0.82017     0.83496     0.81805     0.70706     0.45553    
 0.25106     0.23372     0.35326     0.45453     0.48120     0.47685     0.48202     0.48120     0.46931     0.42032    
 0.31075     0.20686     0.22488     0.40353     0.64663     0.78378     0.82238     0.82381     0.82036     0.82381    
 0.82238     0.78378     0.64663     0.40353     0.22488     0.20686     0.31075     0.42032     0.46931     0.48120    
 0.46334     0.45454     0.42033     0.34740     0.24496     0.17033     0.18448     0.32146     0.54005     0.70671    
 0.77945     0.80177     0.80597     0.80177     0.77945     0.70671     0.54005     0.32146     0.18448     0.17033    
 0.24496     0.34740     0.42033     0.45454     0.36698     0.35326     0.31076     0.24496     0.17800     0.13436    
 0.13633     0.21781     0.39205     0.57034     0.67876     0.72743     0.74071     0.72743     0.67876     0.57034    
 0.39205     0.21781     0.13633     0.13436     0.17800     0.24496     0.31076     0.35326     0.24347     0.23372    
 0.20687     0.17034     0.13437     0.10593     0.94702E-01 0.12427     0.22752     0.38349     0.50760     0.57683    
 0.59912     0.57683     0.50760     0.38349     0.22752     0.12427     0.94702E-01 0.10593     0.13437     0.17034    
 0.20687     0.23372     0.26028     0.25107     0.22489     0.18449     0.13633     0.94704E-01 0.71331E-01 0.71788E-01
 0.10823     0.19439     0.29772     0.36867     0.39317     0.36867     0.29772     0.19439     0.10823     0.71788E-01
 0.71331E-01 0.94704E-01 0.13633     0.18449     0.22489     0.25107     0.47366     0.45554     0.40354     0.32147    
 0.21781     0.12427     0.71790E-01 0.54112E-01 0.58454E-01 0.85553E-01 0.13287     0.17431     0.18922     0.17431    
 0.13287     0.85553E-01 0.58454E-01 0.54112E-01 0.71790E-01 0.12427     0.21781     0.32147     0.40354     0.45554    
 0.72606     0.70706     0.64663     0.54006     0.39206     0.22752     0.10824     0.58455E-01 0.45141E-01 0.48337E-01
 0.63110E-01 0.78248E-01 0.83303E-01 0.78248E-01 0.63110E-01 0.48337E-01 0.45141E-01 0.58455E-01 0.10824     0.22752    
 0.39206     0.54006     0.64663     0.70706     0.82730     0.81805     0.78378     0.70671     0.57034     0.38349    
 0.19439     0.85556E-01 0.48338E-01 0.38329E-01 0.39792E-01 0.44628E-01 0.46298E-01 0.44628E-01 0.39792E-01 0.38329E-01
 0.48338E-01 0.85556E-01 0.19439     0.38349     0.57034     0.70671     0.78378     0.81805     0.83654     0.83496    
 0.82238     0.77945     0.67876     0.50761     0.29773     0.13287     0.63112E-01 0.39793E-01 0.33100E-01 0.32974E-01
 0.33359E-01 0.32974E-01 0.33100E-01 0.39793E-01 0.63112E-01 0.13287     0.29773     0.50761     0.67876     0.77945    
 0.82238     0.83496     0.81478     0.82017     0.82381     0.80177     0.72743     0.57683     0.36867     0.17431    
 0.78251E-01 0.44629E-01 0.32974E-01 0.30347E-01 0.30243E-01 0.30347E-01 0.32974E-01 0.44629E-01 0.78251E-01 0.17431    
 0.36867     0.57683     0.72743     0.80177     0.82381     0.82017     0.66837     0.71081     0.78363     0.81736    
 0.79054     0.68241     0.47941     0.24920     0.11311     0.68022E-01 0.54564E-01 0.53003E-01 0.55100E-01 0.53003E-01
 0.54564E-01 0.68022E-01 0.11311     0.24920     0.47941     0.68241     0.79054     0.81736     0.78363     0.71081    
 0.71717     0.74783     0.79972     0.81893     0.78178     0.66236     0.45431     0.23021     0.10530     0.64480E-01
 0.52353E-01 0.51244E-01 0.53003E-01 0.51244E-01 0.52353E-01 0.64480E-01 0.10530     0.23021     0.45431     0.66236    
 0.78178     0.81893     0.79972     0.74783     0.80051     0.81112     0.82542     0.81358     0.74779     0.59756    
 0.37643     0.17441     0.82955E-01 0.55873E-01 0.49953E-01 0.52353E-01 0.54563E-01 0.52353E-01 0.49953E-01 0.55873E-01
 0.82955E-01 0.17441     0.37643     0.59756     0.74779     0.81358     0.82542     0.81112     0.84086     0.83840    
 0.82304     0.77436     0.66251     0.47256     0.25043     0.10806     0.61452E-01 0.51778E-01 0.55872E-01 0.64478E-01
 0.68019E-01 0.64478E-01 0.55872E-01 0.51778E-01 0.61452E-01 0.10806     0.25043     0.47256     0.66251     0.77436    
 0.82304     0.83840     0.80564     0.79261     0.74696     0.65149     0.49290     0.29193     0.13325     0.68223E-01
 0.54290E-01 0.61450E-01 0.82952E-01 0.10529     0.11310     0.10529     0.82952E-01 0.61450E-01 0.54290E-01 0.68223E-01
 0.13325     0.29193     0.49290     0.65149     0.74696     0.79261     0.62559     0.60358     0.53726     0.42585    
 0.27890     0.14608     0.76853E-01 0.57950E-01 0.68221E-01 0.10805     0.17441     0.23020     0.24919     0.23020    
 0.17441     0.10805     0.68221E-01 0.57950E-01 0.76853E-01 0.14608     0.27890     0.42585     0.53726     0.60358    
 0.34713     0.33323     0.29146     0.22346     0.14622     0.90315E-01 0.67303E-01 0.76851E-01 0.13324     0.25043    
 0.37642     0.45431     0.47941     0.45431     0.37642     0.25043     0.13324     0.76851E-01 0.67303E-01 0.90315E-01
 0.14622     0.22346     0.29146     0.33323     0.20690     0.19974     0.17832     0.14611     0.11293     0.89316E-01
 0.90313E-01 0.14607     0.29192     0.47255     0.59756     0.66236     0.68241     0.66236     0.59756     0.47255    
 0.29192     0.14607     0.90313E-01 0.89316E-01 0.11293     0.14611     0.17832     0.19974     0.23263     0.22301    
 0.19551     0.15916     0.12747     0.11292     0.14622     0.27889     0.49289     0.66251     0.74779     0.78178    
 0.79054     0.78178     0.74779     0.66251     0.49289     0.27889     0.14622     0.11292     0.12747     0.15916    
 0.19551     0.22301     0.33841     0.32331     0.27803     0.21437     0.15916     0.14611     0.22345     0.42584    
 0.65149     0.77436     0.81358     0.81893     0.81737     0.81893     0.81358     0.77436     0.65149     0.42584    
 0.22345     0.14611     0.15916     0.21437     0.27803     0.32331     0.42124     0.40667     0.35894     0.27803    
 0.19550     0.17831     0.29145     0.53725     0.74696     0.82304     0.82543     0.79972     0.78363     0.79972    
 0.82543     0.82304     0.74696     0.53725     0.29145     0.17831     0.19550     0.27803     0.35894     0.40667    
 0.45896     0.44747     0.40667     0.32331     0.22301     0.19974     0.33322     0.60357     0.79261     0.83840    
 0.81112     0.74783     0.71081     0.74783     0.81112     0.83840     0.79261     0.60357     0.33322     0.19974    
 0.22301     0.32331     0.40667     0.44747     0.46927     0.45896     0.42124     0.33841     0.23263     0.20689    
 0.34712     0.62559     0.80564     0.84087     0.80051     0.71717     0.66837     0.71717     0.80051     0.84087    
 0.80564     0.62559     0.34712     0.20689     0.23263     0.33841     0.42124     0.45896     0.45896     0.44747    
 0.40667     0.32331     0.22301     0.19974     0.33322     0.60357     0.79261     0.83840     0.81112     0.74783    
 0.71081     0.74783     0.81112     0.83840     0.79261     0.60357     0.33322     0.19974     0.22301     0.32331    
 0.40667     0.44747     0.42124     0.40667     0.35894     0.27803     0.19550     0.17831     0.29145     0.53725    
 0.74696     0.82304     0.82543     0.79972     0.78363     0.79972     0.82543     0.82304     0.74696     0.53725    
 0.29145     0.17831     0.19550     0.27803     0.35894     0.40667     0.33841     0.32331     0.27803     0.21437    
 0.15916     0.14611     0.22345     0.42584     0.65149     0.77436     0.81358     0.81893     0.81737     0.81893    
 0.81358     0.77436     0.65149     0.42584     0.22345     0.14611     0.15916     0.21437     0.27803     0.32331    
 0.23263     0.22301     0.19551     0.15916     0.12747     0.11292     0.14622     0.27889     0.49289     0.66251    
 0.74779     0.78178     0.79054     0.78178     0.74779     0.66251     0.49289     0.27889     0.14622     0.11292    
 0.12747     0.15916     0.19551     0.22301     0.20690     0.19974     0.17832     0.14611     0.11293     0.89316E-01
 0.90313E-01 0.14607     0.29192     0.47255     0.59756     0.66236     0.68241     0.66236     0.59756     0.47255    
 0.29192     0.14607     0.90313E-01 0.89316E-01 0.11293     0.14611     0.17832     0.19974     0.34713     0.33323    
 0.29146     0.22346     0.14622     0.90315E-01 0.67303E-01 0.76851E-01 0.13324     0.25043     0.37642     0.45431    
 0.47941     0.45431     0.37642     0.25043     0.13324     0.76851E-01 0.67303E-01 0.90315E-01 0.14622     0.22346    
 0.29146     0.33323     0.62559     0.60358     0.53726     0.42585     0.27890     0.14608     0.76853E-01 0.57950E-01
 0.68221E-01 0.10805     0.17441     0.23020     0.24919     0.23020     0.17441     0.10805     0.68221E-01 0.57950E-01
 0.76853E-01 0.14608     0.27890     0.42585     0.53726     0.60358     0.80564     0.79261     0.74696     0.65149    
 0.49290     0.29193     0.13325     0.68223E-01 0.54290E-01 0.61450E-01 0.82952E-01 0.10529     0.11310     0.10529    
 0.82952E-01 0.61450E-01 0.54290E-01 0.68223E-01 0.13325     0.29193     0.49290     0.65149     0.74696     0.79261    
 0.84086     0.83840     0.82304     0.77436     0.66251     0.47256     0.25043     0.10806     0.61452E-01 0.51778E-01
 0.55872E-01 0.64478E-01 0.68019E-01 0.64478E-01 0.55872E-01 0.51778E-01 0.61452E-01 0.10806     0.25043     0.47256    
 0.66251     0.77436     0.82304     0.83840     0.80051     0.81112     0.82542     0.81358     0.74779     0.59756    
 0.37643     0.17441     0.82955E-01 0.55873E-01 0.49953E-01 0.52353E-01 0.54563E-01 0.52353E-01 0.49953E-01 0.55873E-01
 0.82955E-01 0.17441     0.37643     0.59756     0.74779     0.81358     0.82542     0.81112     0.71717     0.74783    
 0.79972     0.81893     0.78178     0.66236     0.45431     0.23021     0.10530     0.64480E-01 0.52353E-01 0.51244E-01
 0.53003E-01 0.51244E-01 0.52353E-01 0.64480E-01 0.10530     0.23021     0.45431     0.66236     0.78178     0.81893    
 0.79972     0.74783     0.44832     0.54331     0.71539     0.80986     0.81370     0.72639     0.51764     0.27341    
 0.13519     0.97191E-01 0.93769E-01 0.10082     0.10820     0.10082     0.93769E-01 0.97191E-01 0.13519     0.27341    
 0.51764     0.72639     0.81370     0.80986     0.71539     0.54331     0.54828     0.62119     0.74856     0.81622    
 0.80723     0.70796     0.49306     0.25457     0.12671     0.92117E-01 0.88596E-01 0.94780E-01 0.10082     0.94780E-01
 0.88596E-01 0.92117E-01 0.12671     0.25457     0.49306     0.70796     0.80723     0.81622     0.74856     0.62119    
 0.72785     0.75671     0.80536     0.82205     0.78066     0.64664     0.41501     0.19752     0.10227     0.79891E-01
 0.80471E-01 0.88595E-01 0.93767E-01 0.88595E-01 0.80471E-01 0.79891E-01 0.10227     0.19752     0.41501     0.64664    
 0.78066     0.82205     0.80536     0.75671     0.82512     0.82885     0.82851     0.79989     0.70965     0.52350    
 0.28365     0.12552     0.76788E-01 0.71144E-01 0.79890E-01 0.92114E-01 0.97188E-01 0.92114E-01 0.79890E-01 0.71144E-01
 0.76788E-01 0.12552     0.28365     0.52350     0.70965     0.79989     0.82851     0.82885     0.82729     0.81876    
 0.78619     0.70793     0.55430     0.33482     0.15202     0.77815E-01 0.65145E-01 0.76786E-01 0.10226     0.12670    
 0.13518     0.12670     0.10226     0.76786E-01 0.65145E-01 0.77815E-01 0.15202     0.33482     0.55430     0.70793    
 0.78619     0.81876     0.71097     0.69034     0.62419     0.50171     0.32681     0.16394     0.81663E-01 0.62273E-01
 0.77813E-01 0.12551     0.19751     0.25456     0.27340     0.25456     0.19751     0.12551     0.77813E-01 0.62273E-01
 0.81663E-01 0.16394     0.32681     0.50171     0.62419     0.69034     0.44797     0.42782     0.36595     0.26476    
 0.15656     0.87750E-01 0.65041E-01 0.81661E-01 0.15202     0.28364     0.41500     0.49305     0.51763     0.49305    
 0.41500     0.28364     0.15202     0.81661E-01 0.65041E-01 0.87750E-01 0.15656     0.26476     0.36595     0.42782    
 0.22956     0.21971     0.18845     0.14163     0.99305E-01 0.76910E-01 0.87747E-01 0.16393     0.33481     0.52350    
 0.64664     0.70796     0.72639     0.70796     0.64664     0.52350     0.33481     0.16393     0.87747E-01 0.76910E-01
 0.99305E-01 0.14163     0.18845     0.21971     0.16686     0.16112     0.14352     0.11974     0.10009     0.99302E-01
 0.15655     0.32680     0.55429     0.70965     0.78066     0.80723     0.81370     0.80723     0.78066     0.70965    
 0.55429     0.32680     0.15655     0.99302E-01 0.10009     0.11974     0.14352     0.16112     0.20034     0.19096    
 0.16588     0.13718     0.11974     0.14163     0.26475     0.50170     0.70792     0.79989     0.82206     0.81623    
 0.80987     0.81623     0.82206     0.79989     0.70792     0.50170     0.26475     0.14163     0.11974     0.13718    
 0.16588     0.19096     0.26521     0.24960     0.21019     0.16588     0.14352     0.18845     0.36595     0.62418    
 0.78619     0.82851     0.80536     0.74856     0.71539     0.74856     0.80536     0.82851     0.78619     0.62418    
 0.36595     0.18845     0.14352     0.16588     0.21019     0.24960     0.31748     0.29821     0.24960     0.19096    
 0.16111     0.21970     0.42781     0.69033     0.81876     0.82885     0.75671     0.62119     0.54331     0.62119    
 0.75671     0.82885     0.81876     0.69033     0.42781     0.21970     0.16111     0.19096     0.24960     0.29821    
 0.33819     0.31748     0.26521     0.20034     0.16685     0.22955     0.44796     0.71097     0.82729     0.82512    
 0.72785     0.54828     0.44832     0.54828     0.72785     0.82512     0.82729     0.71097     0.44796     0.22955    
 0.16685     0.20034     0.26521     0.31748     0.31748     0.29821     0.24960     0.19096     0.16111     0.21970    
 0.42781     0.69033     0.81876     0.82885     0.75671     0.62119     0.54331     0.62119     0.75671     0.82885    
 0.81876     0.69033     0.42781     0.21970     0.16111     0.19096     0.24960     0.29821     0.26521     0.24960    
 0.21019     0.16588     0.14352     0.18845     0.36595     0.62418     0.78619     0.82851     0.80536     0.74856    
 0.71539     0.74856     0.80536     0.82851     0.78619     0.62418     0.36595     0.18845     0.14352     0.16588    
 0.21019     0.24960     0.20034     0.19096     0.16588     0.13718     0.11974     0.14163     0.26475     0.50170    
 0.70792     0.79989     0.82206     0.81623     0.80987     0.81623     0.82206     0.79989     0.70792     0.50170    
 0.26475     0.14163     0.11974     0.13718     0.16588     0.19096     0.16686     0.16112     0.14352     0.11974    
 0.10009     0.99302E-01 0.15655     0.32680     0.55429     0.70965     0.78066     0.80723     0.81370     0.80723    
 0.78066     0.70965     0.55429     0.32680     0.15655     0.99302E-01 0.10009     0.11974     0.14352     0.16112    
 0.22956     0.21971     0.18845     0.14163     0.99305E-01 0.76910E-01 0.87747E-01 0.16393     0.33481     0.52350    
 0.64664     0.70796     0.72639     0.70796     0.64664     0.52350     0.33481     0.16393     0.87747E-01 0.76910E-01
 0.99305E-01 0.14163     0.18845     0.21971     0.44797     0.42782     0.36595     0.26476     0.15656     0.87750E-01
 0.65041E-01 0.81661E-01 0.15202     0.28364     0.41500     0.49305     0.51763     0.49305     0.41500     0.28364    
 0.15202     0.81661E-01 0.65041E-01 0.87750E-01 0.15656     0.26476     0.36595     0.42782     0.71097     0.69034    
 0.62419     0.50171     0.32681     0.16394     0.81663E-01 0.62273E-01 0.77813E-01 0.12551     0.19751     0.25456    
 0.27340     0.25456     0.19751     0.12551     0.77813E-01 0.62273E-01 0.81663E-01 0.16394     0.32681     0.50171    
 0.62419     0.69034     0.82729     0.81876     0.78619     0.70793     0.55430     0.33482     0.15202     0.77815E-01
 0.65145E-01 0.76786E-01 0.10226     0.12670     0.13518     0.12670     0.10226     0.76786E-01 0.65145E-01 0.77815E-01
 0.15202     0.33482     0.55430     0.70793     0.78619     0.81876     0.82512     0.82885     0.82851     0.79989    
 0.70965     0.52350     0.28365     0.12552     0.76788E-01 0.71144E-01 0.79890E-01 0.92114E-01 0.97188E-01 0.92114E-01
 0.79890E-01 0.71144E-01 0.76788E-01 0.12552     0.28365     0.52350     0.70965     0.79989     0.82851     0.82885    
 0.72785     0.75671     0.80536     0.82205     0.78066     0.64664     0.41501     0.19752     0.10227     0.79891E-01
 0.80471E-01 0.88595E-01 0.93767E-01 0.88595E-01 0.80471E-01 0.79891E-01 0.10227     0.19752     0.41501     0.64664    
 0.78066     0.82205     0.80536     0.75671     0.54828     0.62119     0.74856     0.81622     0.80723     0.70796    
 0.49306     0.25457     0.12671     0.92117E-01 0.88596E-01 0.94780E-01 0.10082     0.94780E-01 0.88596E-01 0.92117E-01
 0.12671     0.25457     0.49306     0.70796     0.80723     0.81622     0.74856     0.62119    
  
